5
Properties=species:S:1:pos:R:3 energy=-417.96 pbc="F F F"
C        0.99826000      -0.00246000      -0.00436000
H        2.09021000      -0.00243000       0.00414000
H        0.63379000       1.02686000       0.00414000
H        0.62704000      -0.52773000       0.87811000
H        0.64136000      -0.50747000      -0.90540000
8
Properties=species:S:1:pos:R:3 energy=-712.42 pbc="F F F"
C        1.00404000      -0.00295000      -0.00640000
C        2.51596000      -0.00702000       0.00059000
H        0.62235000       1.02240000      -0.00164000
H        0.61411000      -0.51974000       0.87561000
H        0.62237000      -0.50842000      -0.89857000
H        2.89765000       0.50210000       0.89062000
H        2.90589000       0.50609000      -0.88357000
H        2.89763000      -1.03243000       0.00006000
4
Properties=species:S:1:pos:R:3 energy=-404.88 pbc="F F F"
C        0.99495000       0.00000000       0.00000000
C        2.19521000       0.00000000       0.00000000
H       -0.07071000       0.00000000       0.00000000
H        3.26087000       0.00000000       0.00000000
9
Properties=species:S:1:pos:R:3 energy=-796.98 pbc="F F F"
C        0.98270000      -0.00179000       0.00455000
O        2.40330000       0.02363000       0.00000000
C        2.90147000       1.35426000      -0.00455000
H        0.65650000      -1.04555000       0.00312000
H        0.58759000       0.48886000      -0.89020000
H        0.59362000       0.48472000       0.90444000
H        3.99424000       1.31334000      -0.00312000
H        2.57085000       1.89049000       0.89020000
H        2.57275000       1.88342000      -0.90444000
11
Properties=species:S:1:pos:R:3 energy=-1008.49 pbc="F F F"
C        0.98998000      -0.01336000       0.00412000
C        2.50892000       0.01651000       0.00826000
C        3.04164000       1.43936000       0.00647000
H        0.63090000      -1.04741000       0.00051000
H        0.58974000       0.48838000      -0.88273000
H        0.58540000       0.48354000       0.89177000
H        2.88677000      -0.51545000      -0.87182000
H        2.88159000      -0.51146000       0.89294000
H        2.71140000       1.98078000      -0.88594000
H        4.13606000       1.43474000       0.01521000
H        2.69703000       1.98882000       0.88850000
8
Properties=species:S:1:pos:R:3 energy=-725.93 pbc="F F F"
C       -0.05592000       0.88215000      -0.06572000
C       -0.76458000      -0.44300000      -0.06512000
N        0.69192000      -0.37016000      -0.08060000
H       -0.04144000       1.45388000      -0.98502000
H       -0.02509000       1.45809000       0.84995000
H       -1.23275000      -0.77324000      -0.98413000
H       -1.22649000      -0.78784000       0.85109000
H        1.07883000      -0.57668000       0.84246000
10
Properties=species:S:1:pos:R:3 energy=-871.19 pbc="F F F"
C        1.00460000      -0.00103000      -0.00103000
N        2.46072000       0.01316000       0.00989000
C        2.96822000       1.37810000       0.00297000
H        0.64964000      -1.03648000       0.00675000
H        0.60439000       0.48529000      -0.89694000
H        0.59689000       0.49307000       0.88716000
H        2.80732000      -0.47777000      -0.81352000
H        2.63466000       1.92969000       0.88827000
H        2.65371000       1.91920000      -0.89570000
H        4.06258000       1.36064000       0.01949000
7
Properties=species:S:1:pos:R:3 energy=-653.44 pbc="F F F"
C       -0.08376000       0.89650000      -0.06111000
C       -0.79266000      -0.42854000      -0.06143000
O        0.63598000      -0.34073000       0.01330000
H       -0.02732000       1.45185000      -0.98865000
H       -0.12585000       1.50407000       0.83385000
H       -1.22310000      -0.78328000      -0.98916000
H       -1.32161000      -0.73104000       0.83330000
11
Properties=species:S:1:pos:R:3 energy=-1018.41 pbc="F F F"
C        0.34286000       1.04017000      -0.13399000
C        0.96652000      -0.31841000       0.21410000
N       -0.32324000      -0.95557000      -0.15000000
C       -0.99497000       0.33641000       0.13368000
H        0.59363000       1.87235000       0.52752000
H        0.48728000       1.34465000      -1.17676000
H        1.22798000      -0.44065000       1.27177000
H        1.81974000      -0.62171000      -0.39905000
H       -0.37089000      -1.21977000      -1.13486000
H       -1.81134000       0.59096000      -0.54790000
H       -1.35432000       0.42183000       1.16584000
13
Properties=species:S:1:pos:R:3 energy=-1177.16 pbc="F F F"
C        0.99515000       0.00856000       0.00417000
C        2.51984000       0.00621000       0.00297000
C        3.06609000      -0.73363000      -1.21401000
N        3.00808000       1.38527000       0.01919000
H        0.60352000       0.52844000       0.88615000
H        0.60774000      -1.01590000       0.02419000
H        0.59014000       0.50289000      -0.88675000
H        2.87191000      -0.49429000       0.91114000
H        2.74104000      -0.26590000      -2.15077000
H        2.72049000      -1.77312000      -1.22061000
H        4.16193000      -0.74846000      -1.20644000
H        2.70035000       1.87102000      -0.82350000
H        4.02757000       1.38771000      -0.01227000
9
Properties=species:S:1:pos:R:3 energy=-914.2 pbc="F F F"
C        1.00119000      -0.05258000       0.00343000
C        2.52000000       0.00000000       0.00000000
C        3.00202000       1.36117000       0.00000000
N        3.38623000       2.44616000       0.00000000
H        0.65646000      -1.09150000       0.00110000
H        0.58538000       0.44566000      -0.87937000
H        0.58974000       0.44021000       0.89132000
H        2.89539000      -0.53202000      -0.88118000
H        2.89954000      -0.53378000       0.87831000
12
Properties=species:S:1:pos:R:3 energy=-1155.53 pbc="F F F"
C        0.33723000       1.02278000      -0.13048000
C        0.99607000      -0.33062000       0.21120000
C       -0.32985000      -0.99629000      -0.21134000
C       -1.02069000       0.34049000       0.13055000
H        0.58767000       1.85483000       0.53191000
H        0.48316000       1.33457000      -1.17072000
H        1.23193000      -0.45104000       1.27487000
H        1.87361000      -0.59675000      -0.38285000
H       -0.37414000      -1.25730000      -1.27479000
H       -0.64058000      -1.85872000       0.38291000
H       -1.83865000       0.63707000      -0.53221000
H       -1.35867000       0.41002000       1.17084000
13
Properties=species:S:1:pos:R:3 energy=-1163.14 pbc="F F F"
C        0.99936000       0.00416000      -0.01126000
N        2.46131000       0.01111000      -0.01432000
C        2.97333000      -0.71239000      -1.17698000
C        2.96586000       1.38322000      -0.00343000
H        0.61376000       0.50971000       0.88150000
H        0.61919000      -1.02329000       0.02196000
H        0.57970000       0.49841000      -0.89542000
H        2.63049000      -1.75335000      -1.16437000
H        4.06879000      -0.74327000      -1.15965000
H        2.65641000      -0.25668000      -2.12251000
H        2.61558000       1.91536000       0.88844000
H        2.65054000       1.94886000      -0.88818000
H        4.06111000       1.39037000       0.03768000
11
Properties=species:S:1:pos:R:3 energy=-1028.25 pbc="F F F"
N        0.92480000      -0.08064000      -0.19965000
C        2.33834000       0.03097000       0.12096000
C        2.76098000       1.46257000       0.06777000
C        3.30038000       2.13236000       1.09671000
H        0.64580000      -1.05718000      -0.13094000
H        0.77769000       0.18650000      -1.17061000
H        2.92697000      -0.54994000      -0.59800000
H        2.51657000      -0.39724000       1.11338000
H        2.62421000       1.98304000      -0.87645000
H        3.45476000       1.66325000       2.06291000
H        3.58506000       3.17431000       0.99171000
12
Properties=species:S:1:pos:R:3 energy=-1107.82 pbc="F F F"
C        0.99227000       0.00482000       0.00804000
C        2.51308000      -0.01258000      -0.00101000
C        3.06471000      -0.74219000      -1.21607000
O        2.99692000       1.32775000       0.00028000
H        0.62253000       0.55402000       0.88064000
H        0.58369000      -1.00990000       0.03484000
H        0.59835000       0.51805000      -0.87619000
H        2.87869000      -0.49389000       0.91170000
H        2.74651000      -0.25722000      -2.14556000
H        2.73622000      -1.78578000      -1.23555000
H        4.15987000      -0.72023000      -1.20931000
H        2.67606000       1.76165000      -0.80794000
10
Properties=species:S:1:pos:R:3 energy=-980.82 pbc="F F F"
C        0.99838000      -0.00491000      -0.00737000
C        2.50169000       0.03443000       0.00508000
C        3.22549000      -1.28473000      -0.00532000
O        3.11879000       1.09885000       0.01820000
H        0.60232000       1.01431000       0.00058000
H        0.63800000      -0.53033000       0.88067000
H        0.65216000      -0.51122000      -0.91266000
H        2.51223000      -2.11380000       0.01770000
H        3.86715000      -1.35213000       0.87740000
H        3.82386000      -1.36180000      -0.91704000
12
Properties=species:S:1:pos:R:3 energy=-1096.09 pbc="F F F"
C        0.96554000      -0.09790000      -0.00157000
C        2.47992000      -0.03310000      -0.01160000
O        2.87347000       1.33622000       0.02717000
C        4.28794000       1.47505000       0.01944000
H        0.61882000      -1.13473000      -0.03127000
H        0.55077000       0.43843000      -0.86151000
H        0.56468000       0.38354000       0.89726000
H        2.86607000      -0.50352000      -0.92216000
H        2.88059000      -0.55817000       0.86224000
H        4.52993000       2.54075000       0.04997000
H        4.71004000       1.04684000      -0.89499000
H        4.72517000       0.99197000       0.89870000
10
Properties=species:S:1:pos:R:3 energy=-956.51 pbc="F F F"
O        1.02475000       0.01132000      -0.14228000
C        2.44460000      -0.03451000       0.03577000
C        3.19946000      -0.74496000      -1.04822000
C        3.24920000       0.75296000      -0.95502000
H        0.62006000       0.68163000       0.43501000
H        2.82802000      -0.12393000       1.04717000
H        2.62898000      -1.18710000      -1.85657000
H        4.08158000      -1.30555000      -0.76501000
H        4.17142000       1.20935000      -0.61337000
H        2.72119000       1.32278000      -1.71020000
11
Properties=species:S:1:pos:R:3 energy=-974.5 pbc="F F F"
N        0.97307000       0.00114000       0.03760000
C        2.43164000       0.01319000      -0.00770000
C        3.00114000       1.43469000      -0.00790000
O        4.42465000       1.39643000      -0.02802000
H        0.64406000      -0.96306000      -0.00423000
H        0.60336000       0.45828000      -0.79628000
H        2.78090000      -0.52224000      -0.89807000
H        2.82556000      -0.53681000       0.85451000
H        2.68208000       1.99302000       0.87869000
H        2.66817000       1.98352000      -0.89478000
H        4.71192000       1.02901000       0.82581000
14
Properties=species:S:1:pos:R:3 energy=-1305.32 pbc="F F F"
C        0.98784000      -0.00764000      -0.00077000
C        2.51477000       0.00873000      -0.00625000
C        3.05523000      -0.74689000      -1.21802000
C        3.03628000       1.44371000       0.00805000
H        0.59669000       0.50831000       0.88268000
H        0.61009000      -1.03558000       0.01801000
H        0.58006000       0.48660000      -0.88954000
H        2.86834000      -0.49599000       0.90096000
H        2.72900000      -0.28299000      -2.15531000
H        2.70744000      -1.78542000      -1.21534000
H        4.15031000      -0.76106000      -1.21052000
H        2.71066000       1.99527000      -0.88071000
H        4.13107000       1.45905000       0.03373000
H        2.67362000       1.98030000       0.89121000
12
Properties=species:S:1:pos:R:3 energy=-1161.23 pbc="F F F"
C        0.99217000      -0.01899000      -0.01614000
C        2.49249000       0.02685000      -0.00175000
C        3.20973000      -1.29221000      -0.00691000
C        3.17121000       1.18489000       0.01868000
H        0.55003000       0.98122000      -0.01327000
H        0.62116000      -0.55062000       0.86702000
H        0.63760000      -0.53961000      -0.91120000
H        2.50606000      -2.12815000       0.05551000
H        3.88784000      -1.36823000       0.84983000
H        3.78623000      -1.41141000      -0.92946000
H        2.66180000       2.14320000       0.02199000
H        4.25597000       1.20306000       0.02723000
13
Properties=species:S:1:pos:R:3 energy=-1276.16 pbc="F F F"
C        0.97070000      -0.10276000      -0.06662000
C        2.47950000      -0.01835000       0.04869000
C        2.95355000       1.41754000       0.00706000
C        2.96396000       2.10499000      -1.33273000
O        3.28125000       2.01315000       1.03384000
H        0.63848000      -1.14137000       0.02633000
H        0.62459000       0.27881000      -1.03253000
H        0.48343000       0.48599000       0.71769000
H        2.96657000      -0.57764000      -0.75682000
H        2.80986000      -0.46263000       0.99411000
H        3.48256000       1.48048000      -2.06474000
H        3.49722000       3.05671000      -1.25217000
H        1.93919000       2.29647000      -1.65908000
15
Properties=species:S:1:pos:R:3 energy=-1395.15 pbc="F F F"
C        1.13226000      -0.12389000      -0.15833000
C        2.63133000      -0.14504000       0.06796000
O        3.15282000       1.14559000      -0.23803000
C        4.56287000       1.20484000      -0.04279000
C        5.03585000       2.60327000      -0.38627000
H        0.69023000      -1.09795000       0.06797000
H        0.90355000       0.13599000      -1.19646000
H        0.65875000       0.63482000       0.47244000
H        3.09581000      -0.89558000      -0.58206000
H        2.84658000      -0.39313000       1.11369000
H        5.05784000       0.47463000      -0.69199000
H        4.80202000       0.97795000       1.00170000
H        4.79084000       2.84928000      -1.42539000
H        6.11700000       2.69527000      -0.24793000
H        4.53465000       3.34599000       0.24305000
13
Properties=species:S:1:pos:R:3 energy=-1331.79 pbc="F F F"
C       -1.26828000      -0.00009000      -0.12996000
C       -0.38242000      -1.22339000       0.10437000
C        0.99383000      -0.66921000      -0.05175000
C        0.99436000       0.66757000      -0.04455000
C       -0.38314000       1.21999000       0.11686000
H       -1.62280000       0.00534000      -1.16906000
H       -2.15524000      -0.00359000       0.51216000
H       -0.59218000      -2.00858000      -0.62799000
H       -0.51629000      -1.63095000       1.11164000
H        1.88055000      -1.28392000      -0.12756000
H        1.88085000       1.28360000      -0.11432000
H       -0.51631000       1.61738000       1.12900000
H       -0.59216000       2.01292000      -0.60702000
13
Properties=species:S:1:pos:R:3 energy=-1242.47 pbc="F F F"
C        2.53631000      -0.92774000      -0.86052000
O        2.01631000       0.31396000      -0.40718000
C        3.04558000       1.22543000       0.01984000
C        3.50390000       2.22677000      -1.00176000
C        2.61385000       2.66080000       0.12488000
H        1.70183000      -1.55663000      -1.18266000
H        3.06703000      -1.43515000      -0.04904000
H        3.20867000      -0.77229000      -1.70992000
H        3.76353000       0.88020000       0.75819000
H        3.07364000       2.17543000      -1.99518000
H        4.54166000       2.53435000      -0.97887000
H        3.04569000       3.26169000       0.91647000
H        1.58011000       2.89565000      -0.10175000
15
Properties=species:S:1:pos:R:3 energy=-1393.45 pbc="F F F"
C        1.01932000      -0.09867000       0.13821000
O        2.41360000       0.07817000       0.34817000
C        2.85951000       1.41870000       0.12887000
C        2.49276000       2.31592000       1.30649000
C        4.37358000       1.36287000      -0.03925000
H        0.79079000      -1.16293000       0.24477000
H        0.73683000       0.21596000      -0.87114000
H        0.43759000       0.45060000       0.88307000
H        2.42090000       1.81071000      -0.79618000
H        2.84231000       1.88487000       2.25178000
H        1.40743000       2.42999000       1.39338000
H        2.92583000       3.31541000       1.19391000
H        4.85412000       0.94384000       0.85245000
H        4.79167000       2.35652000      -0.22912000
H        4.64003000       0.70790000      -0.87642000
11
Properties=species:S:1:pos:R:3 energy=-1131.38 pbc="F F F"
O        1.05867000       0.00350000       0.20480000
C        2.26374000      -0.00430000       0.07270000
C        3.34675000       1.08989000      -0.01728000
C        4.27253000      -0.00143000      -0.60997000
C        3.32068000      -1.11560000      -0.10666000
H        3.65194000       1.47068000       0.96167000
H        3.10936000       1.91651000      -0.68915000
H        4.35217000       0.04178000      -1.70259000
H        5.28179000      -0.03084000      -0.18929000
H        3.06387000      -1.87857000      -0.84340000
H        3.61545000      -1.58098000       0.83769000
13
Properties=species:S:1:pos:R:3 energy=-1306.46 pbc="F F F"
C        1.91049000      -0.66083000      -1.19042000
C        2.06825000       0.29640000      -0.26706000
C        3.23695000       1.16654000      -0.13081000
C        3.51015000       2.19769000      -1.19444000
C        3.01876000       2.62928000       0.15598000
H        1.01207000      -1.26868000      -1.21612000
H        2.67432000      -0.85169000      -1.93734000
H        1.27042000       0.43648000       0.46189000
H        4.09572000       0.69685000       0.33893000
H        2.82707000       2.28210000      -2.03246000
H        4.54476000       2.39844000      -1.44809000
H        3.72075000       3.12457000       0.81732000
H        2.00544000       3.00893000       0.22560000
14
Properties=species:S:1:pos:R:3 energy=-1267.25 pbc="F F F"
C        1.78621000      -0.40721000       0.63053000
N        3.16217000       0.04119000       0.45146000
C        3.19478000       1.42115000      -0.06268000
C        4.65182000       1.87773000      -0.20696000
O        5.33240000       1.71719000       1.03537000
H        1.78388000      -1.43458000       1.00875000
H        1.23406000      -0.39537000      -0.31525000
H        1.25874000       0.21423000       1.36181000
H        3.62492000      -0.57601000      -0.21723000
H        2.68999000       2.08055000       0.65328000
H        2.68665000       1.49462000      -1.03051000
H        4.70136000       2.93154000      -0.49649000
H        5.17625000       1.28419000      -0.96304000
H        4.92746000       0.92246000       1.43993000
12
Properties=species:S:1:pos:R:3 energy=-1152.68 pbc="F F F"
C        1.02079000       0.01805000      -0.15433000
N        2.45160000       0.01600000       0.07188000
C        3.14446000      -1.25708000       0.02360000
C        3.16307000       1.19306000       0.17593000
O        4.37931000       1.29262000       0.27289000
H        0.60766000       1.02549000      -0.05597000
H        0.54355000      -0.63930000       0.57805000
H        0.82331000      -0.35172000      -1.16428000
H        2.67610000      -1.94352000       0.73410000
H        4.20260000      -1.14836000       0.27774000
H        3.06134000      -1.66298000      -0.98805000
H        2.51619000       2.08583000       0.17456000
14
Properties=species:S:1:pos:R:3 energy=-1262.44 pbc="F F F"
C        1.33358000      -0.29547000      -0.06490000
O        2.71425000      -0.02537000       0.13870000
C        3.01409000       1.35845000      -0.08375000
C        4.52090000       1.57604000       0.09233000
N        5.28407000       0.85432000      -0.93176000
H        1.15780000      -1.35619000       0.13235000
H        1.05055000      -0.08103000      -1.09980000
H        0.72162000       0.29461000       0.62392000
H        2.47004000       1.96487000       0.64910000
H        2.69920000       1.65163000      -1.09241000
H        4.82958000       1.20856000       1.07713000
H        4.75680000       2.64249000       0.02974000
H        4.93728000      -0.10877000      -0.94470000
H        6.25963000       0.79913000      -0.64428000
12
Properties=species:S:1:pos:R:3 energy=-1105.28 pbc="F F F"
C        1.61243000      -0.44975000      -0.48559000
O        3.00619000      -0.22516000      -0.30837000
N        3.22346000       1.15784000      -0.22146000
C        4.48814000       1.36720000      -0.06107000
C        5.02592000       2.75687000       0.06441000
H        1.44171000      -1.52741000      -0.55327000
H        1.26736000       0.02102000      -1.41135000
H        1.05346000      -0.05691000       0.36937000
H        5.21800000       0.54016000      -0.01034000
H        4.22316000       3.49541000       0.00149000
H        5.74870000       2.92991000      -0.73697000
H        5.53896000       2.85201000       1.02478000
12
Properties=species:S:1:pos:R:3 energy=-1118.32 pbc="F F F"
N        0.99109000       0.00839000       0.07670000
C        2.44968000       0.02969000      -0.07108000
C        3.08011000       1.01958000       0.91829000
O        3.93681000      -0.02469000       1.45658000
C        3.10032000      -1.03423000       0.82327000
H        0.54429000      -0.78398000      -0.38386000
H        0.52954000       0.84036000      -0.28980000
H        2.82656000       0.08134000      -1.09543000
H        2.43568000       1.43576000       1.70044000
H        3.66478000       1.82186000       0.45850000
H        3.70125000      -1.77820000       0.29324000
H        2.46586000      -1.53265000       1.56394000
10
Properties=species:S:1:pos:R:3 energy=-1023.89 pbc="F F F"
N        1.02652000      -0.01238000       0.24513000
C        2.27952000      -0.00732000      -0.28037000
O        2.80873000      -1.02328000      -0.70618000
C        2.92091000       1.32664000      -0.28277000
C        4.15776000       1.48166000      -0.77153000
H        0.56014000       0.80643000       0.60504000
H        0.54069000      -0.89907000       0.27171000
H        2.37173000       2.16897000       0.11673000
H        4.71682000       0.64092000      -1.17486000
H        4.63760000       2.45391000      -0.77848000
11
Properties=species:S:1:pos:R:3 energy=-1163.19 pbc="F F F"
C        1.00000000       0.00000000       0.00000000
C        2.44400000       0.00000000       0.00000000
C        3.63416000       0.00000000       0.00000000
C        5.04016000       0.00000000       0.00000000
C        5.74192000       1.13787000       0.00000000
H        0.60599000       1.02088000       0.01168000
H        0.60592000      -0.52052000       0.87825000
H        0.60592000      -0.50029000      -0.88993000
H        5.55447000      -0.95634000      -0.00000000
H        5.25561000       2.10880000       0.00000000
H        6.82682000       1.11897000       0.00000000
15
Properties=species:S:1:pos:R:3 energy=-1458.12 pbc="F F F"
C        2.08917000      -0.31815000       1.49147000
C        2.48626000       0.04738000       0.06815000
C        3.07625000       1.43368000      -0.03607000
C        2.13177000       2.58956000       0.14039000
C        4.37854000       1.62630000      -0.30758000
H        1.71566000      -1.34682000       1.52487000
H        1.29625000       0.33564000       1.86806000
H        2.94450000      -0.24687000       2.17183000
H        1.61120000      -0.02463000      -0.58891000
H        3.20223000      -0.70038000      -0.29571000
H        1.30120000       2.51296000      -0.56879000
H        2.62491000       3.55214000      -0.03106000
H        1.72388000       2.60361000       1.15578000
H        5.05929000       0.79218000      -0.44685000
H        4.79985000       2.62293000      -0.39509000
13
Properties=species:S:1:pos:R:3 energy=-1306.23 pbc="F F F"
C        1.00010000      -0.05443000       0.00330000
C        2.52000000       0.00000000       0.00000000
C        3.00202000       1.36117000       0.00000000
C        3.39930000       2.48307000       0.00000000
C        3.88132000       3.84424000       0.00000000
H        0.65801000      -1.09369000       0.00293000
H        0.58500000       0.44108000      -0.88045000
H        0.58888000       0.43925000       0.88978000
H        2.89561000      -0.53271000      -0.88086000
H        2.89947000      -0.53410000       0.87836000
H        3.08759000       4.54329000      -0.28088000
H        4.70476000       3.97071000      -0.70959000
H        4.24614000       4.13310000       0.99047000
15
Properties=species:S:1:pos:R:3 energy=-1454.38 pbc="F F F"
C        1.03321000       0.01181000      -0.06548000
C        2.52299000       0.00396000      -0.01485000
C        3.31165000      -0.70755000      -1.08515000
C        3.32396000       0.79752000      -1.01748000
C        4.55773000       1.51922000      -0.59322000
H        0.63935000       0.78729000       0.59771000
H        0.64085000      -0.95346000       0.26716000
H        0.65678000       0.20388000      -1.07497000
H        2.88879000      -0.06845000       1.00403000
H        2.77355000      -1.17299000      -1.90353000
H        4.20037000      -1.24983000      -0.78098000
H        2.79328000       1.33850000      -1.79363000
H        5.09180000       0.98910000       0.20262000
H        4.30115000       2.51720000      -0.22477000
H        5.23730000       1.63287000      -1.44268000
12
Properties=species:S:1:pos:R:3 energy=-1197.04 pbc="F F F"
C       -0.37217000       1.18165000       0.10750000
N       -1.24679000      -0.00167000      -0.00672000
C       -0.37148000      -1.18513000       0.09359000
C        1.01274000      -0.66673000      -0.03977000
C        1.01229000       0.66595000      -0.03212000
H       -0.51105000       1.65975000       1.08285000
H       -0.60785000       1.90803000      -0.67714000
H       -1.64793000       0.00408000      -0.94363000
H       -0.60652000      -1.90234000      -0.69921000
H       -0.50958000      -1.67438000       1.06302000
H        1.88960000      -1.29249000      -0.10373000
H        1.88825000       1.29352000      -0.08879000
14
Properties=species:S:1:pos:R:3 energy=-1322.48 pbc="F F F"
C        0.99962000      -0.03526000       0.04521000
C        2.51022000       0.05465000       0.01391000
C        3.17063000       1.09827000       0.94195000
C        4.19547000      -0.01348000       1.22350000
N        3.15590000      -0.99572000       0.84336000
H        0.64946000      -0.90320000      -0.52403000
H        0.55478000       0.85815000      -0.40540000
H        0.61246000      -0.12152000       1.06696000
H        2.90075000       0.08914000      -1.01240000
H        2.57409000       1.38443000       1.81600000
H        3.55831000       1.99732000       0.45789000
H        5.06242000      -0.00598000       0.55044000
H        4.54439000      -0.08740000       2.25620000
H        3.49832000      -1.80148000       0.32359000
14
Properties=species:S:1:pos:R:3 energy=-1324.02 pbc="F F F"
C        0.84625000      -0.00977000      -0.23400000
C        2.32325000      -0.02941000       0.05041000
C        2.69140000      -0.00700000       1.50836000
C        3.22749000      -0.76933000      -0.91158000
N        3.18912000       0.68929000      -0.89211000
H        0.63183000      -0.00360000      -1.30849000
H        0.38449000       0.88088000       0.20499000
H        0.36583000      -0.89374000       0.19805000
H        3.77593000      -0.02935000       1.66198000
H        2.26443000      -0.87579000       2.02009000
H        2.30295000       0.89839000       1.98631000
H        2.79003000      -1.24045000      -1.78364000
H        4.13270000      -1.23625000      -0.54262000
H        4.01154000       1.07187000      -0.42255000
15
Properties=species:S:1:pos:R:3 energy=-1453.11 pbc="F F F"
C        0.96855000      -0.01070000       0.01323000
C        2.48292000       0.01731000       0.02092000
C        3.15280000       1.05048000       0.96235000
C        4.24206000      -0.00884000       1.22873000
C        3.19305000      -1.07793000       0.85745000
H        0.60210000      -0.87047000      -0.55802000
H        0.56883000       0.89652000      -0.45200000
H        0.55945000      -0.07922000       1.02640000
H        2.87816000       0.07569000      -1.00337000
H        2.56463000       1.30632000       1.85154000
H        3.49720000       1.97266000       0.48700000
H        5.08661000       0.04124000       0.53155000
H        4.62484000      -0.05204000       2.25146000
H        3.57107000      -1.93496000       0.29474000
H        2.61694000      -1.44139000       1.71635000
16
Properties=species:S:1:pos:R:3 energy=-1470.79 pbc="F F F"
C        1.16124000      -0.27645000      -0.08987000
C        2.67731000      -0.16165000      -0.05525000
C        3.12735000       1.29719000       0.01797000
C        4.65064000       1.40280000       0.05382000
N        5.06033000       2.80058000       0.12969000
H        0.86138000      -1.32788000      -0.14398000
H        0.74875000       0.23976000      -0.96272000
H        0.71459000       0.15850000       0.80987000
H        3.09376000      -0.63624000      -0.95232000
H        3.05949000      -0.71492000       0.81108000
H        2.70225000       1.76604000       0.91380000
H        2.73682000       1.84322000      -0.84871000
H        5.08465000       0.94610000      -0.84339000
H        5.04645000       0.86783000       0.92460000
H        4.72300000       3.30177000      -0.69111000
H        6.07763000       2.85705000       0.10094000
16
Properties=species:S:1:pos:R:3 energy=-1471.15 pbc="F F F"
C        1.00980000      -0.02216000       0.01829000
C        2.53877000      -0.00620000      -0.03988000
C        3.02024000      -0.79912000      -1.25802000
C        3.04671000       1.44558000      -0.05562000
N        4.50268000       1.51657000      -0.00639000
H        0.64897000       0.50633000       0.90669000
H        0.63321000      -1.04920000       0.06567000
H        0.57340000       0.45872000      -0.86350000
H        2.91450000      -0.50468000       0.86375000
H        2.69388000      -0.32810000      -2.19131000
H        2.62176000      -1.81901000      -1.23758000
H        4.11186000      -0.87469000      -1.27873000
H        2.64066000       1.98965000       0.80500000
H        2.69724000       1.95835000      -0.95901000
H        4.83877000       1.06958000       0.84553000
H        4.79233000       2.49161000       0.04818000
16
Properties=species:S:1:pos:R:3 energy=-1474.9 pbc="F F F"
C        0.99035000       0.00395000      -0.00512000
C        2.52286000      -0.00983000       0.01073000
C        3.02960000      -0.70603000       1.27860000
C        3.05666000      -0.72795000      -1.23453000
N        3.00224000       1.37686000       0.01589000
H        0.60297000       0.50672000      -0.89888000
H        0.58569000       0.52359000       0.87126000
H        0.58915000      -1.01558000       0.00057000
H        2.67140000      -0.20066000       2.18297000
H        4.12485000      -0.72142000       1.31705000
H        2.68271000      -1.74438000       1.32074000
H        2.71456000      -0.24098000      -2.15485000
H        2.71435000      -1.76822000      -1.26360000
H        4.15241000      -0.73942000      -1.25094000
H        2.69928000       1.85138000      -0.83436000
H        4.02180000       1.39104000      -0.00067000
12
Properties=species:S:1:pos:R:3 energy=-1210.27 pbc="F F F"
C        0.96029000      -0.04656000      -0.00403000
C        2.48037000      -0.01139000      -0.00279000
C        3.00794000       1.42182000       0.00812000
C        4.47574000       1.44430000       0.00916000
N        5.63740000       1.46413000       0.00999000
H        0.60515000      -1.08181000      -0.01189000
H        0.55695000       0.45760000      -0.88804000
H        0.55581000       0.44453000       0.88679000
H        2.85368000      -0.54283000      -0.88696000
H        2.85255000      -0.55581000       0.87391000
H        2.63403000       1.94930000       0.89334000
H        2.63508000       1.96233000      -0.86966000
16
Properties=species:S:1:pos:R:3 energy=-1466.4 pbc="F F F"
C        1.10803000      -0.14302000       0.09732000
C        2.62835000      -0.10957000       0.06106000
N        3.09178000       1.27491000      -0.01074000
C        4.55149000       1.34214000      -0.03545000
C        4.99888000       2.79402000      -0.10669000
H        0.75497000      -1.17837000       0.13814000
H        0.68027000       0.32414000      -0.79607000
H        0.72022000       0.38012000       0.97779000
H        2.97526000      -0.67127000      -0.81382000
H        3.01939000      -0.60095000       0.95960000
H        2.73737000       1.79752000       0.79003000
H        4.94121000       0.80754000      -0.90888000
H        4.97374000       0.88052000       0.86438000
H        4.61253000       3.28402000      -1.00709000
H        6.09195000       2.85080000      -0.13515000
H        4.65505000       3.35949000       0.76627000
16
Properties=species:S:1:pos:R:3 energy=-1466.12 pbc="F F F"
C        0.98040000      -0.04385000       0.02804000
N        2.42711000       0.05334000       0.17787000
C        2.92123000       1.43365000       0.07172000
C        2.52731000       2.27925000       1.28463000
C        4.44750000       1.39226000      -0.05178000
H        0.68862000      -1.09852000       0.03980000
H        0.64384000       0.38466000      -0.92078000
H        0.45188000       0.44220000       0.85291000
H        2.86508000      -0.51527000      -0.54715000
H        2.52645000       1.90166000      -0.83961000
H        2.86235000       1.81719000       2.21919000
H        1.44431000       2.42135000       1.34341000
H        2.98039000       3.27462000       1.22282000
H        4.90923000       0.93089000       0.82782000
H        4.85387000       2.40410000      -0.15367000
H        4.75594000       0.82339000      -0.93535000
14
Properties=species:S:1:pos:R:3 energy=-1319.45 pbc="F F F"
C        1.11989000      -0.16488000       0.00345000
N        2.56357000      -0.06548000      -0.15659000
C        3.02311000       1.29617000       0.09617000
C        4.51204000       1.34516000      -0.05872000
C        5.16315000       2.13502000      -0.92198000
H        0.80179000      -1.19430000      -0.18991000
H        0.59110000       0.48769000      -0.69889000
H        0.81577000       0.08684000       1.02481000
H        2.81152000      -0.31761000      -1.11299000
H        2.77439000       1.59757000       1.12063000
H        2.53718000       2.00128000      -0.59000000
H        5.08492000       0.68922000       0.59349000
H        4.63680000       2.80867000      -1.59080000
H        6.24765000       2.11858000      -0.97646000
14
Properties=species:S:1:pos:R:3 energy=-1321.3 pbc="F F F"
N        1.04565000       0.00857000       0.08152000
C        2.49314000       0.02973000      -0.07010000
C        3.09317000       1.06151000       0.91029000
C        4.15706000      -0.00781000       1.24684000
C        3.11486000      -1.06752000       0.82034000
H        0.59906000      -0.78476000      -0.37680000
H        0.58441000       0.84032000      -0.28498000
H        2.87156000       0.07775000      -1.09568000
H        2.46684000       1.32985000       1.77020000
H        3.47889000       1.97804000       0.45555000
H        5.04097000       0.02834000       0.59937000
H        4.47883000      -0.04851000       2.29031000
H        3.51973000      -1.93449000       0.29118000
H        2.49556000      -1.42001000       1.65459000
17
Properties=species:S:1:pos:R:3 energy=-1602.07 pbc="F F F"
C        0.98868000      -0.01100000      -0.00544000
C        2.52368000      -0.00751000       0.01067000
C        3.02375000      -0.71906000       1.27563000
C        3.05011000      -0.74085000      -1.23092000
C        3.03218000       1.44090000       0.00343000
H        0.60063000       0.49260000      -0.89818000
H        0.58201000       0.50540000       0.87157000
H        0.59470000      -1.03373000      -0.00220000
H        2.66493000      -0.21646000       2.18109000
H        4.11894000      -0.73437000       1.31495000
H        2.67465000      -1.75739000       1.31045000
H        2.70775000      -0.25609000      -2.15234000
H        2.70438000      -1.78064000      -1.25329000
H        4.14589000      -0.75373000      -1.24865000
H        2.69173000       1.97593000      -0.89047000
H        4.12753000       1.47639000       0.01590000
H        2.67106000       1.99204000       0.87924000
13
Properties=species:S:1:pos:R:3 energy=-1249.87 pbc="F F F"
C        0.93517000      -0.00959000       0.04335000
C        2.44792000       0.02159000       0.00381000
C        3.14412000       1.01435000       0.94136000
O        4.00730000      -0.02916000       1.45857000
C        3.18414000      -1.04117000       0.82987000
H        0.55355000      -0.86910000      -0.51729000
H        0.52050000       0.89677000      -0.40873000
H        0.55689000      -0.07974000       1.06815000
H        2.82400000       0.08474000      -1.02527000
H        2.52984000       1.44520000       1.73842000
H        3.71334000       1.80449000       0.44394000
H        3.78086000      -1.75026000       0.25011000
H        2.58750000      -1.57897000       1.57328000
15
Properties=species:S:1:pos:R:3 energy=-1400.29 pbc="F F F"
C        1.05220000      -0.09472000       0.02404000
C        2.57146000      -0.04556000       0.05572000
C        3.08701000       1.38734000      -0.04030000
C        4.60881000       1.43943000      -0.00826000
O        5.04710000       2.78912000      -0.08971000
H        0.70497000      -1.13037000       0.09312000
H        0.66519000       0.33193000      -0.90682000
H        0.62410000       0.46380000       0.86253000
H        2.96773000      -0.64028000      -0.77557000
H        2.92681000      -0.50816000       0.98390000
H        2.68638000       1.99214000       0.78278000
H        2.72521000       1.85912000      -0.96230000
H        5.04506000       0.88198000      -0.84349000
H        4.99361000       1.01611000       0.92490000
H        4.72180000       3.15202000      -0.93124000
17
Properties=species:S:1:pos:R:3 energy=-1600.27 pbc="F F F"
C        0.97144000      -0.07826000       0.04072000
C        2.48944000       0.01608000       0.10071000
C        3.01884000       1.45909000       0.04347000
C        2.56995000       2.29259000       1.24456000
C        4.54730000       1.44880000      -0.03616000
H        0.66307000      -1.12730000      -0.02007000
H        0.57929000       0.44100000      -0.83966000
H        0.50592000       0.35014000       0.93329000
H        2.89928000      -0.55008000      -0.74489000
H        2.84326000      -0.47991000       1.01271000
H        2.63852000       1.93811000      -0.86759000
H        2.87207000       1.82491000       2.18782000
H        1.48310000       2.41821000       1.25841000
H        3.01116000       3.29482000       1.20839000
H        4.98897000       0.98427000       0.85229000
H        4.94038000       2.46809000      -0.11654000
H        4.88786000       0.89125000      -0.91532000
15
Properties=species:S:1:pos:R:3 energy=-1406.47 pbc="F F F"
C        0.98595000      -0.00197000      -0.00604000
C        2.51359000      -0.03477000       0.00605000
C        3.02646000      -0.71467000       1.27381000
C        3.05366000      -0.73921000      -1.23785000
O        2.99712000       1.30924000       0.01317000
H        0.61307000       0.52115000      -0.89392000
H        0.60134000       0.54733000       0.86076000
H        0.56089000      -1.01076000       0.00489000
H        2.68144000      -0.18338000       2.16821000
H        4.12178000      -0.69922000       1.30892000
H        2.69209000      -1.75514000       1.33784000
H        2.71987000      -0.23219000      -2.15026000
H        2.72765000      -1.78326000      -1.28348000
H        4.14916000      -0.71547000      -1.25408000
H        2.67435000       1.74851000      -0.79221000
11
Properties=species:S:1:pos:R:3 energy=-1194.16 pbc="F F F"
C        0.00046000       1.26889000       0.00886000
C        1.16477000       0.32312000       0.00411000
C        0.72097000      -0.94387000      -0.00261000
C       -0.72120000      -0.94250000      -0.00284000
C       -1.16444000       0.32256000       0.00371000
H        0.00010000       1.90233000      -0.88330000
H       -0.00019000       1.89295000       0.90761000
H        2.20050000       0.62609000       0.00586000
H        1.32793000      -1.83566000      -0.00717000
H       -1.32889000      -1.83408000      -0.00762000
H       -2.19997000       0.62598000       0.00514000
15
Properties=species:S:1:pos:R:3 energy=-1484.87 pbc="F F F"
C        0.72471000       1.33987000      -0.56270000
C       -0.45799000       0.97030000       0.28414000
C       -1.47967000      -0.00348000      -0.20899000
C       -0.82579000      -1.34986000       0.05288000
C        0.67164000      -1.06577000      -0.02242000
N        0.85414000       0.31358000       0.46996000
H        0.75520000       1.03730000      -1.60130000
H        1.22343000       2.27825000      -0.35187000
H       -0.78351000       1.61969000       1.08481000
H       -2.43092000       0.08965000       0.32426000
H       -1.66798000       0.14323000      -1.27848000
H       -1.08371000      -1.69181000       1.06284000
H       -1.14805000      -2.11593000      -0.65761000
H        1.22692000      -1.76727000       0.60888000
H        1.04562000      -1.18226000      -1.04726000
13
Properties=species:S:1:pos:R:3 energy=-1348.1 pbc="F F F"
C        0.99312000      -0.96498000      -0.03222000
C       -0.44408000      -1.40565000      -0.18432000
C       -1.25726000      -0.34329000      -0.04730000
C       -0.54940000       0.91545000       0.22019000
N        0.36807000       1.45301000      -0.77038000
C        0.92012000       0.52985000       0.21643000
H        1.45468000      -1.47277000       0.82020000
H        1.56825000      -1.18358000      -0.93688000
H       -0.75680000      -2.42004000      -0.38045000
H       -2.33678000      -0.38940000      -0.11702000
H       -0.91211000       1.56902000       1.00303000
H        0.22882000       0.99173000      -1.67082000
H        1.58115000       0.92163000       0.97446000
17
Properties=species:S:1:pos:R:3 energy=-1639.58 pbc="F F F"
C        0.73580000       1.27405000      -0.20099000
C       -0.72923000       1.23853000       0.22344000
C       -1.40933000      -0.04680000      -0.24529000
N       -0.70068000      -1.24036000       0.22329000
C        0.68619000      -1.24503000      -0.24803000
C        1.44942000      -0.00675000       0.22043000
H        0.79704000       1.38337000      -1.29095000
H        1.23458000       2.14478000       0.23827000
H       -1.25460000       2.10804000      -0.18718000
H       -0.79391000       1.31184000       1.31642000
H       -2.43679000      -0.07399000       0.13450000
H       -1.47986000      -0.06283000      -1.33965000
H       -0.70196000      -1.24450000       1.24350000
H        1.18446000      -2.14444000       0.12977000
H        0.70568000      -1.31270000      -1.34244000
H        1.54868000      -0.02715000       1.31295000
H        2.46495000      -0.01845000      -0.19298000
12
Properties=species:S:1:pos:R:3 energy=-1242.67 pbc="F F F"
C        1.41740000      -0.20514000       0.06088000
C        0.41407000      -1.32653000      -0.00113000
C       -0.89644000      -1.06736000      -0.03664000
N       -1.32385000       0.22547000      -0.01833000
C       -0.42824000       1.25404000       0.03057000
N        0.85404000       1.16292000       0.06910000
H        2.02431000      -0.32795000       0.96479000
H        2.09106000      -0.28994000      -0.79904000
H        0.78258000      -2.34559000      -0.01558000
H       -1.66055000      -1.83515000      -0.08072000
H       -2.31859000       0.40777000      -0.04732000
H       -0.91312000       2.24416000       0.03446000
16
Properties=species:S:1:pos:R:3 energy=-1503.98 pbc="F F F"
C        0.72349000       1.19873000      -0.23654000
C       -0.74939000       1.20603000       0.22891000
N       -1.48523000       0.00118000      -0.18178000
C       -0.75008000      -1.20836000       0.21352000
C        0.72211000      -1.19615000      -0.25176000
N        1.45784000      -0.00195000       0.20359000
H        0.77014000       1.27144000      -1.33050000
H        1.23145000       2.08484000       0.15952000
H       -1.25260000       2.08526000      -0.18743000
H       -0.78691000       1.30014000       1.32141000
H       -2.40733000      -0.00057000       0.25045000
H       -0.78813000      -1.31617000       1.30478000
H       -1.25432000      -2.08163000      -0.21392000
H        1.22959000      -2.08748000       0.13334000
H        0.76911000      -1.25518000      -1.34637000
H        1.46618000      -0.00820000       1.22321000
14
Properties=species:S:1:pos:R:3 energy=-1383.11 pbc="F F F"
C        0.39112000       1.34915000       0.32567000
C        1.39470000       0.35255000      -0.22769000
N        0.96357000      -0.97227000       0.14654000
C       -0.36877000      -1.25388000       0.19462000
N       -1.34866000      -0.43418000       0.09303000
C       -1.00838000       0.97534000      -0.14794000
H        0.64236000       2.36548000       0.00450000
H        0.42110000       1.33445000       1.42255000
H        2.39133000       0.54837000       0.17989000
H        1.45601000       0.42658000      -1.31902000
H        1.60484000      -1.73569000      -0.03374000
H       -0.56903000      -2.32751000       0.35394000
H       -1.11621000       1.18435000      -1.21877000
H       -1.73965000       1.60177000       0.37501000
15
Properties=species:S:1:pos:R:3 energy=-1481.17 pbc="F F F"
C        0.93144000      -0.00864000       0.96176000
C        0.29084000      -1.02157000      -0.02883000
C        0.75808000      -0.02715000      -1.13012000
C        0.28935000       0.99863000      -0.04737000
N       -1.16576000       0.74587000       0.06618000
C       -1.18942000      -0.72188000       0.09410000
H        2.02699000      -0.00793000       1.00189000
H        0.54683000      -0.00128000       1.98664000
H        0.65094000      -2.04816000      -0.04898000
H        0.20999000      -0.03850000      -2.07785000
H        1.83219000      -0.02927000      -1.35004000
H        0.63215000       2.03088000      -0.08830000
H       -1.57996000       1.11001000       0.92388000
H       -1.76563000      -1.12164000      -0.74592000
H       -1.60808000      -1.10116000       1.03208000
17
Properties=species:S:1:pos:R:3 energy=-1619.7 pbc="F F F"
C        1.03138000       0.01529000      -0.05721000
C        2.52176000      -0.00820000      -0.01151000
C        3.34640000      -0.75518000      -1.03656000
C        2.72971000      -1.51469000      -2.16090000
C        3.32463000       0.75183000      -1.03648000
N        4.51719000       1.48127000      -0.61643000
H        0.64651000       0.73518000       0.67309000
H        0.62854000      -0.97093000       0.19568000
H        0.64541000       0.30379000      -1.04093000
H        2.87656000      -0.04326000       1.01314000
H        4.24323000      -1.25275000      -0.68129000
H        1.86901000      -1.00026000      -2.59681000
H        2.40116000      -2.49806000      -1.81221000
H        3.46621000      -1.66551000      -2.95596000
H        2.77887000       1.23228000      -1.84597000
H        4.99565000       1.00483000       0.14697000
H        4.26548000       2.40147000      -0.25753000
17
Properties=species:S:1:pos:R:3 energy=-1637.38 pbc="F F F"
C        1.02618000      -0.01595000      -0.02427000
C        2.54234000      -0.00752000       0.06358000
C        3.08412000       1.14487000       0.89239000
C        4.48347000       0.66915000       1.23031000
C        4.34840000      -0.84361000       1.33655000
N        3.04060000      -1.18796000       0.77357000
H        0.67416000      -0.86876000      -0.61464000
H        0.66296000       0.89950000      -0.50271000
H        0.56397000      -0.08073000       0.96724000
H        2.97224000       0.02454000      -0.94586000
H        2.50330000       1.28670000       1.81230000
H        3.09249000       2.09120000       0.34316000
H        5.16882000       0.92467000       0.41285000
H        4.86348000       1.12431000       2.14946000
H        5.16053000      -1.34518000       0.80033000
H        4.38479000      -1.16513000       2.38230000
H        3.11374000      -1.98509000       0.14370000
17
Properties=species:S:1:pos:R:3 energy=-1608.8 pbc="F F F"
C        0.94394000      -0.02131000       0.05919000
C        2.45694000      -0.00105000      -0.01212000
C        3.18571000       1.02999000       0.87646000
N        4.14538000      -0.01679000       1.29062000
C        5.34515000       0.02282000       0.45378000
C        3.21314000      -1.06291000       0.81629000
H        0.54591000      -0.88911000      -0.47616000
H        0.52596000       0.87903000      -0.40206000
H        0.58705000      -0.06854000       1.09313000
H        2.79570000       0.03406000      -1.05727000
H        2.58690000       1.40621000       1.71526000
H        3.60171000       1.89567000       0.34940000
H        5.97394000      -0.84882000       0.66626000
H        5.93710000       0.91297000       0.69390000
H        5.13900000       0.03531000      -0.62305000
H        3.65137000      -1.88565000       0.24067000
H        2.62502000      -1.50226000       1.63165000
18
Properties=species:S:1:pos:R:3 energy=-1750.35 pbc="F F F"
C        1.17015000       0.20340000       0.14993000
C        2.66078000      -0.03060000      -0.09065000
C        2.87616000      -0.78633000      -1.40102000
C        3.40018000       1.28291000      -0.11534000
C        3.84199000       1.92916000       1.17309000
C        4.86359000       1.33664000       0.24339000
H        1.00599000       0.72406000       1.10013000
H        0.62585000      -0.74634000       0.18721000
H        0.72925000       0.81839000      -0.64330000
H        3.04250000      -0.65401000       0.72721000
H        2.50616000      -0.21237000      -2.25848000
H        2.35698000      -1.75057000      -1.38656000
H        3.94172000      -0.97913000      -1.56863000
H        3.05763000       1.93873000      -0.90999000
H        3.64830000       1.41507000       2.10762000
H        3.78455000       3.00968000       1.24325000
H        5.49723000       2.01603000      -0.31544000
H        5.35896000       0.42245000       0.55092000
17
Properties=species:S:1:pos:R:3 energy=-1622.97 pbc="F F F"
C        0.89136000      -0.02530000       0.08900000
C        2.39914000       0.00172000       0.01561000
N        2.88978000       0.03804000      -1.36779000
C        3.15646000       1.06963000       0.84472000
C        4.20862000      -0.00073000       1.20154000
C        3.18556000      -1.08174000       0.79331000
H        0.54530000      -0.05680000       1.12834000
H        0.48405000      -0.90618000      -0.41960000
H        0.45377000       0.86611000      -0.37518000
H        3.90337000       0.04029000      -1.47008000
H        2.55401000       0.83993000      -1.90198000
H        2.59905000       1.42260000       1.72146000
H        3.53535000       1.94575000       0.30969000
H        5.10180000       0.02635000       0.56693000
H        4.52305000      -0.02158000       2.24892000
H        3.58853000      -1.92149000       0.21799000
H        2.63956000      -1.49141000       1.65262000
16
Properties=species:S:1:pos:R:3 energy=-1486.89 pbc="F F F"
C        0.87414000      -0.02576000       0.06205000
C        2.38196000       0.00046000       0.00516000
N        2.89427000       0.03767000      -1.38154000
C        3.14631000       1.03449000       0.87018000
N        4.15813000      -0.00273000       1.18999000
C        3.17448000      -1.05258000       0.81926000
H        0.51649000      -0.05742000       1.09715000
H        0.47274000      -0.90623000      -0.45142000
H        0.44333000       0.86585000      -0.40676000
H        3.91041000       0.04241000      -1.44651000
H        2.57701000       0.84884000      -1.91039000
H        2.59819000       1.37572000       1.75725000
H        3.54131000       1.91861000       0.35894000
H        4.96337000       0.01678000       0.56618000
H        3.59366000      -1.89977000       0.26632000
H        2.63685000      -1.45115000       1.68890000
20
Properties=species:S:1:pos:R:3 energy=-1894.96 pbc="F F F"
C        0.96898000      -0.11275000       0.01023000
C        2.49909000      -0.00755000      -0.01314000
C        3.02566000      -0.81186000      -1.20825000
C        2.98377000       1.46883000      -0.04214000
C        2.45752000       2.27315000       1.15312000
C        4.51376000       1.57387000      -0.06578000
H        0.55329000       0.29493000       0.93659000
H        0.64768000      -1.15880000      -0.04670000
H        0.52209000       0.42383000      -0.83385000
H        2.87772000      -0.48510000       0.89992000
H        2.75504000      -0.33539000      -2.15690000
H        2.61135000      -1.82668000      -1.21018000
H        4.11444000      -0.91600000      -1.17317000
H        2.60509000       1.94636000      -0.95517000
H        2.72821000       1.79646000       2.10154000
H        1.36873000       2.37699000       1.11816000
H        2.87153000       3.28772000       1.15508000
H        4.96109000       1.03732000       0.77821000
H        4.83523000       2.62028000      -0.00880000
H        4.92958000       1.16645000      -0.99246000
17
Properties=species:S:1:pos:R:3 energy=-1615.87 pbc="F F F"
C        2.96058000       0.50552000      -1.95090000
C        2.73392000      -0.16880000      -0.60651000
C        3.36706000       0.59013000       0.56054000
C        4.86662000       0.59196000       0.50054000
C        5.62225000       1.82608000       0.07510000
N        5.59535000       1.40649000       1.47228000
H        2.43509000      -0.04425000      -2.73964000
H        4.02279000       0.52857000      -2.21277000
H        2.58292000       1.53267000      -1.94490000
H        3.12499000      -1.19219000      -0.64598000
H        1.65447000      -0.24490000      -0.43060000
H        3.06137000       0.10194000       1.49421000
H        2.97093000       1.61282000       0.59546000
H        5.28853000      -0.38503000       0.29750000
H        5.06888000       2.72830000      -0.15409000
H        6.55918000       1.70614000      -0.45158000
H        6.47445000       0.95517000       1.73613000
20
Properties=species:S:1:pos:R:3 energy=-1896.03 pbc="F F F"
C        0.95645000      -0.11343000      -0.00534000
C        2.47298000       0.03555000       0.00517000
C        3.00862000       1.49049000      -0.01148000
C        2.55749000       2.23371000      -1.27966000
C        2.53654000       2.27012000       1.22692000
C        4.54868000       1.43619000       0.00216000
H        0.68948000      -1.17563000       0.00784000
H        0.51312000       0.32413000      -0.90417000
H        0.49827000       0.34991000       0.87289000
H        2.87309000      -0.50712000      -0.86131000
H        2.85842000      -0.48164000       0.89361000
H        2.83994000       1.68136000      -2.18278000
H        3.01903000       3.22620000      -1.33954000
H        1.47272000       2.38087000      -1.29977000
H        2.80375000       1.74428000       2.15022000
H        1.45167000       2.41752000       1.22459000
H        2.99727000       3.26400000       1.26563000
H        4.91888000       0.92502000       0.89811000
H        4.98257000       2.44262000      -0.00883000
H        4.93365000       0.89933000      -0.87228000
19
Properties=species:S:1:pos:R:3 energy=-1766.6 pbc="F F F"
C        0.98466000      -0.06152000       0.01525000
C        2.50484000      -0.03218000       0.01718000
C        3.03744000       1.40035000      -0.00304000
C        4.56744000       1.42549000      -0.00246000
C        5.09624000       2.85871000      -0.02157000
N        6.55428000       2.86041000      -0.03067000
H        0.62547000      -1.09524000       0.03079000
H        0.58424000       0.42387000      -0.88043000
H        0.58137000       0.45158000       0.89403000
H        2.87605000      -0.58036000      -0.85679000
H        2.87332000      -0.55430000       0.90810000
H        2.66085000       1.94449000       0.87137000
H        2.66198000       1.91918000      -0.89319000
H        4.94230000       0.87980000      -0.87787000
H        4.94064000       0.90277000       0.88755000
H        4.73810000       3.40649000       0.85696000
H        4.73331000       3.38238000      -0.91236000
H        6.90358000       2.39972000       0.80867000
H        6.89124000       3.82137000       0.00961000
20
Properties=species:S:1:pos:R:3 energy=-1896.03 pbc="F F F"
C        1.11530000      -0.10498000       0.09136000
C        2.63014000      -0.24170000       0.08907000
C        3.31147000       1.11345000      -0.11270000
C        4.84599000       1.05626000       0.00480000
C        5.48209000       0.14387000      -1.04549000
C        5.42793000       2.46740000      -0.11605000
H        0.64636000      -1.08602000       0.22149000
H        0.75786000       0.31972000      -0.85190000
H        0.78042000       0.54167000       0.90893000
H        2.91489000      -0.93368000      -0.71083000
H        2.95310000      -0.68530000       1.03778000
H        2.92778000       1.81647000       0.63787000
H        3.03035000       1.51830000      -1.09330000
H        5.10781000       0.66875000       0.99854000
H        5.18322000       0.43583000      -2.05730000
H        5.19466000      -0.90019000      -0.89111000
H        6.57489000       0.18940000      -0.98890000
H        5.20396000       2.90619000      -1.09380000
H        6.51574000       2.45185000       0.00752000
H        5.01491000       3.12613000       0.65471000
13
Properties=species:S:1:pos:R:3 energy=-1362.59 pbc="F F F"
C        0.81586000       0.01880000       0.08049000
C        2.30199000       0.00172000       0.24361000
C        3.12022000       0.94523000      -0.25069000
C        4.61632000       0.93965000      -0.09103000
C        5.28198000       0.93208000      -1.40218000
N        5.82011000       0.93453000      -2.43221000
H        0.48887000      -0.88308000      -0.44587000
H        0.47126000       0.88922000      -0.48666000
H        0.33390000       0.03845000       1.06269000
H        2.71030000      -0.84184000       0.79696000
H        2.69721000       1.78530000      -0.80067000
H        4.94560000       0.07335000       0.49409000
H        4.91235000       1.83463000       0.46778000
19
Properties=species:S:1:pos:R:3 energy=-1766.7 pbc="F F F"
C        0.82383000      -0.47314000       0.20848000
C        2.32118000      -0.35120000      -0.07743000
C        2.76251000      -1.48648000      -1.00520000
C        2.69274000       1.00693000      -0.70150000
C        2.42077000       2.19469000       0.22377000
N        2.86424000       3.43493000      -0.40504000
H        0.50442000       0.24127000       0.97317000
H        0.57905000      -1.47433000       0.58015000
H        0.23105000      -0.29461000      -0.69525000
H        2.86226000      -0.46347000       0.87063000
H        2.25469000      -1.42815000      -1.97417000
H        2.53657000      -2.46223000      -0.56227000
H        3.84202000      -1.44532000      -1.18475000
H        2.14537000       1.14187000      -1.64418000
H        3.76060000       0.99426000      -0.95899000
H        2.94657000       2.06202000       1.17518000
H        1.35190000       2.28171000       0.43828000
H        3.86712000       3.39102000      -0.58226000
H        2.72204000       4.21042000       0.24096000
14
Properties=species:S:1:pos:R:3 energy=-1456.06 pbc="F F F"
C       -1.27074000       0.02602000      -0.48236000
C       -0.36124000      -0.54545000       0.68817000
C       -0.62296000       0.89474000       1.30558000
C       -0.29988000       1.25330000      -0.20802000
C        1.07377000       0.71564000      -0.44448000
C        1.03331000      -0.48548000       0.15377000
H       -1.18156000      -0.46309000      -1.45803000
H       -2.33318000       0.17389000      -0.25754000
H       -0.67254000      -1.43425000       1.23279000
H       -1.63862000       1.10535000       1.65954000
H        0.09214000       1.24499000       2.05737000
H       -0.54815000       2.23896000      -0.59700000
H        1.89005000       1.18480000      -0.96818000
H        1.80814000      -1.22926000       0.23443000
19
Properties=species:S:1:pos:R:3 energy=-1767.11 pbc="F F F"
C        1.01026000      -0.00115000      -0.01348000
C        2.55025000      -0.03745000       0.01022000
C        3.00195000      -0.78542000       1.27698000
C        3.04332000      -0.80073000      -1.23176000
C        3.07135000       1.42264000       0.00348000
N        4.52735000       1.53516000       0.00096000
H        0.64001000       0.51249000      -0.90801000
H        0.61345000       0.52483000       0.86223000
H        0.58850000      -1.01271000      -0.01320000
H        2.70035000      -0.24615000       2.18193000
H        4.08906000      -0.91380000       1.30800000
H        2.55660000      -1.78597000       1.32293000
H        2.74812000      -0.28694000      -2.15349000
H        2.62163000      -1.81190000      -1.26573000
H        4.13394000      -0.90155000      -1.23831000
H        2.68252000       1.96093000       0.87657000
H        2.69047000       1.94298000      -0.88353000
H        4.90526000       1.14961000       0.86481000
H        4.78820000       2.52047000      -0.00492000
15
Properties=species:S:1:pos:R:3 energy=-1506.73 pbc="F F F"
C        0.98464000      -0.00493000      -0.01754000
C        2.52000000       0.00000000       0.00000000
C        3.01476000      -0.72376000       1.26178000
C        3.04309000      -0.73378000      -1.24259000
C        3.00202000       1.36117000       0.00000000
N        3.38623000       2.44616000       0.00000000
H        0.59306000       0.50366000      -0.90728000
H        0.57285000       0.51073000       0.85881000
H        0.59004000      -1.02777000      -0.01797000
H        2.65931000      -0.22672000       2.17203000
H        4.11001000      -0.74214000       1.30753000
H        2.66216000      -1.76077000       1.28833000
H        2.70726000      -0.24636000      -2.16676000
H        2.69324000      -1.77283000      -1.26852000
H        4.14014000      -0.75131000      -1.26542000
17
Properties=species:S:1:pos:R:3 energy=-1623.4 pbc="F F F"
C        2.27925000      -0.41092000      -1.36964000
C        2.41720000       0.15400000       0.03673000
C        2.90344000       1.58704000       0.03410000
C        2.03267000       2.61041000       0.05786000
C        4.39259000       1.81597000       0.00029000
N        5.02893000       1.27433000       1.19346000
H        1.96145000      -1.45793000      -1.32413000
H        3.22655000      -0.36880000      -1.91723000
H        1.52725000       0.14190000      -1.94364000
H        3.09448000      -0.47981000       0.61950000
H        1.44489000       0.08933000       0.53950000
H        0.96069000       2.43821000       0.07305000
H        2.36414000       3.64410000       0.05179000
H        4.62492000       2.88547000      -0.06734000
H        4.81943000       1.34124000      -0.88972000
H        4.65275000       1.75622000       2.00832000
H        6.02280000       1.49204000       1.16762000
15
Properties=species:S:1:pos:R:3 energy=-1506.3 pbc="F F F"
C        1.15143000      -0.33626000       0.03655000
C        2.66476000      -0.19038000       0.04845000
C        3.08766000       1.27431000      -0.06362000
C        4.60928000       1.41680000      -0.04852000
C        5.00923000       2.82649000      -0.15392000
N        5.32703000       3.93900000      -0.23688000
H        0.87169000      -1.39087000       0.12289000
H        0.72718000       0.05263000      -0.89463000
H        0.69840000       0.20495000       0.87333000
H        3.08786000      -0.76500000      -0.78373000
H        3.06003000      -0.62209000       0.97531000
H        2.65306000       1.84738000       0.76562000
H        2.68362000       1.70448000      -0.98915000
H        5.04436000       0.85081000      -0.88029000
H        5.01372000       0.99117000       0.87710000
16
Properties=species:S:1:pos:R:3 energy=-1485.53 pbc="F F F"
C        0.93340000      -0.07183000      -0.06859000
C        2.45230000       0.03580000      -0.00695000
C        3.11017000      -0.75231000      -1.13297000
C        2.84993000       1.48843000      -0.12004000
N        3.49874000       2.06838000       0.83912000
N        3.77272000       3.36595000       0.57659000
H        0.47095000       0.50596000       0.73863000
H        0.61205000      -1.11348000       0.03189000
H        0.54304000       0.31661000      -1.01541000
H        2.80170000      -0.35343000       0.95760000
H        2.79251000      -0.38699000      -2.11512000
H        2.85621000      -1.81477000      -1.06483000
H        4.20006000      -0.65938000      -1.08486000
H        2.56634000       2.01775000      -1.04941000
H        4.46133000       3.70400000       1.25495000
H        2.94697000       3.94749000       0.74446000
16
Properties=species:S:1:pos:R:3 energy=-1517.77 pbc="F F F"
C        0.96555000      -0.05712000      -0.06997000
C        2.48724000       0.04251000      -0.04747000
C        3.11753000      -0.81059000      -1.14391000
C        2.91255000       1.50077000      -0.16960000
N        2.82232000       2.15264000      -1.35899000
N        3.33379000       2.16813000       0.85485000
H        0.52357000       0.56390000       0.71694000
H        0.64144000      -1.09051000       0.09172000
H        0.55300000       0.28136000      -1.02670000
H        2.84182000      -0.33627000       0.91913000
H        2.75110000      -0.53122000      -2.13773000
H        2.88886000      -1.87019000      -0.98845000
H        4.20686000      -0.69561000      -1.14803000
H        2.10444000       1.85647000      -2.00715000
H        2.89715000       3.15922000      -1.25218000
H        3.35138000       1.57590000       1.69120000
17
Properties=species:S:1:pos:R:3 energy=-1610.85 pbc="F F F"
C        1.06282000      -0.30184000      -0.04402000
C        2.57370000      -0.26136000      -0.21733000
C        3.17774000       0.98268000       0.43921000
N        4.62811000       1.00394000       0.22308000
C        5.33935000       1.84392000       1.18036000
C        5.39031000       0.34055000       1.27648000
H        0.65274000      -1.20268000      -0.50998000
H        0.59188000       0.56825000      -0.51236000
H        0.78978000      -0.31249000       1.01540000
H        2.81203000      -0.27638000      -1.28754000
H        3.00563000      -1.16804000       0.22407000
H        2.90024000       1.00937000       1.50153000
H        2.74642000       1.87985000      -0.02215000
H        4.76823000       2.39249000       1.91950000
H        6.21304000       2.35877000       0.79771000
H        6.29574000      -0.15955000       0.95493000
H        4.85298000      -0.14959000       2.07790000
15
Properties=species:S:1:pos:R:3 energy=-1466.65 pbc="F F F"
C        0.98559000      -0.01989000      -0.03570000
C        2.52000000       0.00000000       0.00000000
C        3.02128000      -0.74195000       1.24464000
N        3.03795000      -0.68561000      -1.18547000
C        3.00202000       1.36117000       0.00000000
C        3.39930000       2.48307000       0.00000000
H        0.59585000       0.49216000      -0.92379000
H        0.56327000       0.48633000       0.84044000
H        0.59759000      -1.04492000      -0.04437000
H        2.66645000      -0.25922000       2.16311000
H        4.11735000      -0.75757000       1.29133000
H        2.67219000      -1.78115000       1.26146000
H        2.71211000      -0.19898000      -2.01897000
H        2.65173000      -1.62551000      -1.23377000
H        3.76352000       3.48420000      -0.00318000
14
Properties=species:S:1:pos:R:3 energy=-1489.21 pbc="F F F"
C        0.33286000      -1.44346000       0.05101000
C       -1.12693000      -0.95738000      -0.04637000
C       -1.31719000       0.53276000      -0.00322000
C       -0.29173000       1.39495000       0.01296000
C        1.07439000       0.93934000      -0.01529000
C        1.37855000      -0.36525000       0.00409000
H        0.52410000      -2.15546000      -0.76135000
H        0.46094000      -2.00441000       0.98539000
H       -1.70610000      -1.41017000       0.76765000
H       -1.56658000      -1.33184000      -0.97934000
H       -2.33636000       0.90807000       0.00812000
H       -0.46734000       2.46642000       0.03964000
H        1.85756000       1.69154000      -0.04469000
H        2.41919000      -0.67582000      -0.00735000
19
Properties=species:S:1:pos:R:3 energy=-1753.9 pbc="F F F"
C        0.96885000      -0.13361000       0.00804000
C        2.50141000      -0.00366000      -0.00507000
C        3.02424000      -0.81114000      -1.20538000
N        2.93953000       1.41424000      -0.05379000
C        2.42662000       2.19185000       1.08108000
C        4.40154000       1.54135000      -0.08679000
H        0.53559000       0.24844000       0.93776000
H        0.66595000      -1.18425000      -0.06635000
H        0.51622000       0.40459000      -0.83229000
H        2.88561000      -0.47566000       0.90947000
H        2.75540000      -0.33349000      -2.15404000
H        2.60143000      -1.82215000      -1.20886000
H        4.11159000      -0.93021000      -1.17323000
H        1.33723000       2.28625000       1.04066000
H        2.80715000       3.22062000       1.05025000
H        2.71009000       1.75225000       2.04266000
H        4.81717000       1.13971000      -1.01592000
H        4.87736000       1.03746000       0.76213000
H        4.70051000       2.59618000      -0.06875000
15
Properties=species:S:1:pos:R:3 energy=-1466.65 pbc="F F F"
C        0.99106000      -0.01079000       0.07637000
C        2.52000000       0.00000000       0.00000000
C        2.98583000      -0.77053000      -1.25499000
N        4.43640000      -0.98653000      -1.28830000
C        3.00202000       1.36117000       0.00000000
C        3.39930000       2.48307000       0.00000000
H        0.63860000       0.51152000       0.97323000
H        0.61008000      -1.03698000       0.11664000
H        0.54176000       0.48335000      -0.79308000
H        2.89975000      -0.51973000       0.88931000
H        2.68882000      -0.23262000      -2.16408000
H        2.50178000      -1.75349000      -1.28591000
H        4.90916000      -0.08323000      -1.23300000
H        4.69541000      -1.38758000      -2.18869000
H        3.75412000       3.48805000       0.00542000
19
Properties=species:S:1:pos:R:3 energy=-1767.95 pbc="F F F"
C        1.03149000      -0.11889000       0.43180000
C        2.52974000       0.02616000       0.66878000
C        3.07400000       1.43503000       0.36925000
N        2.47056000       2.44067000       1.24628000
C        4.60540000       1.45058000       0.52903000
C        5.24086000       2.78520000       0.15784000
H        0.73167000      -1.16359000       0.56252000
H        0.76356000       0.18575000      -0.58444000
H        0.45171000       0.48061000       1.13951000
H        3.04617000      -0.69921000       0.02721000
H        2.75603000      -0.25702000       1.70488000
H        2.82980000       1.69623000      -0.66733000
H        2.61201000       2.17798000       2.22110000
H        1.46262000       2.47040000       1.10169000
H        5.04120000       0.67467000      -0.11345000
H        4.88384000       1.19690000       1.56006000
H        4.97773000       3.07233000      -0.86571000
H        6.33097000       2.71131000       0.21898000
H        4.92337000       3.58384000       0.83414000
16
Properties=species:S:1:pos:R:3 energy=-1632.17 pbc="F F F"
C        0.41535000       1.37339000       0.32359000
C        1.38638000       0.38264000      -0.31302000
C        1.05057000      -1.05855000       0.07994000
C       -0.42107000      -1.35121000       0.04208000
C       -1.35659000      -0.39418000      -0.04279000
C       -1.03173000       1.07075000      -0.07384000
H        0.67276000       2.39668000       0.02736000
H        0.51332000       1.32472000       1.41582000
H        2.41421000       0.61648000      -0.01330000
H        1.34267000       0.48433000      -1.40496000
H        1.41724000      -1.26111000       1.09336000
H        1.57610000      -1.74369000      -0.59510000
H       -0.72169000      -2.39549000       0.08233000
H       -2.40682000      -0.67190000      -0.08811000
H       -1.22384000       1.44573000      -1.08612000
H       -1.70670000       1.60814000       0.60160000
18
Properties=species:S:1:pos:R:3 energy=-1640.73 pbc="F F F"
C        0.91254000      -0.09791000       0.04189000
C        2.44472000      -0.09370000       0.09197000
C        2.91844000      -0.78551000       1.37917000
N        2.97080000      -0.86841000      -1.04914000
C        2.97631000       1.37054000       0.01741000
N        4.42371000       1.43710000      -0.23458000
H        0.54045000       0.36524000      -0.87931000
H        0.49196000       0.45971000       0.88652000
H        0.51324000      -1.11789000       0.08505000
H        2.57928000      -0.23650000       2.26506000
H        4.01047000      -0.85666000       1.43195000
H        2.52141000      -1.80508000       1.45168000
H        3.97076000      -0.64146000      -1.10634000
H        2.59626000      -0.47339000      -1.91201000
H        2.74463000       1.90681000       0.94536000
H        2.47584000       1.90342000      -0.80013000
H        4.92122000       1.01717000       0.55017000
H        4.71054000       2.41529000      -0.25574000
10
Properties=species:S:1:pos:R:3 energy=-1105.98 pbc="F F F"
C        0.99147000      -0.02380000       0.01319000
C        2.52000000       0.00000000       0.00000000
C        3.02333000      -0.76843000      -1.14793000
N        3.40764000      -1.39940000      -2.04381000
C        3.00202000       1.36117000       0.00000000
N        3.38623000       2.44616000       0.00000000
H        0.59682000       0.50812000       0.88665000
H        0.61410000      -1.05236000       0.04788000
H        0.57184000       0.45224000      -0.88171000
H        2.86689000      -0.49436000       0.91617000
18
Properties=species:S:1:pos:R:3 energy=-1637.73 pbc="F F F"
C        1.19463000      -0.27782000       0.93264000
C        2.64742000      -0.33585000       0.47894000
C        3.30129000       1.05112000       0.31297000
N        3.33454000       1.78565000       1.59187000
C        4.73985000       0.91852000      -0.25365000
N        5.69036000       0.38185000       0.72976000
H        0.75862000      -1.28254000       0.92040000
H        0.59959000       0.35769000       0.27076000
H        1.10745000       0.10498000       1.95471000
H        2.68245000      -0.86013000      -0.48371000
H        3.21528000      -0.94840000       1.18993000
H        2.71218000       1.63759000      -0.40265000
H        3.74433000       1.16584000       2.29180000
H        2.38094000       1.95713000       1.90514000
H        5.09432000       1.90855000      -0.56727000
H        4.73866000       0.27823000      -1.14244000
H        5.71331000       1.04295000       1.50808000
H        6.62521000       0.40410000       0.32525000
14
Properties=species:S:1:pos:R:3 energy=-1351.27 pbc="F F F"
C        0.76938000       0.11755000      -0.02807000
C        2.23268000      -0.22484000       0.07415000
C        2.62010000      -1.67600000      -0.07418000
N        3.07842000       0.74103000       0.27800000
N        4.39941000       0.31536000       0.35089000
C        5.18638000       1.31655000       0.55751000
H        0.61254000       1.19278000       0.09511000
H        0.21806000      -0.41590000       0.75118000
H        0.39452000      -0.18866000      -1.00862000
H        1.72922000      -2.29530000      -0.20996000
H        3.14552000      -2.01346000       0.82339000
H        3.26652000      -1.79695000      -0.94775000
H        6.27135000       1.15239000       0.64154000
H        4.82725000       2.35493000       0.65774000
16
Properties=species:S:1:pos:R:3 energy=-1478.64 pbc="F F F"
C        0.98537000      -0.22515000       0.12074000
C        2.50122000      -0.13816000       0.21366000
C        2.97794000       1.31328000       0.16228000
N        4.43986000       1.37214000       0.24630000
N        4.96982000       2.61769000       0.19570000
C        6.25735000       2.63444000       0.29471000
H        0.66133000      -1.26876000       0.17600000
H        0.62731000       0.19201000      -0.82554000
H        0.50992000       0.32274000       0.93995000
H        2.94208000      -0.71044000      -0.61215000
H        2.83172000      -0.60974000       1.14747000
H        2.54052000       1.87542000       0.99560000
H        2.64266000       1.78044000      -0.77151000
H        4.84090000       0.75663000      -0.46566000
H        6.79072000       3.59719000       0.26249000
H        6.87564000       1.72759000       0.41794000
17
Properties=species:S:1:pos:R:3 energy=-1613.97 pbc="F F F"
C        3.05679000      -1.07413000      -0.51763000
C        2.48445000       0.20705000       0.07138000
N        3.51686000       1.24702000       0.08931000
C        3.47660000       2.14057000      -1.06708000
C        2.97448000       2.58753000       0.28583000
C        3.75616000       3.56716000       1.09100000
H        2.30203000      -1.86675000      -0.49875000
H        3.92279000      -1.42168000       0.05560000
H        3.36803000      -0.92920000      -1.55738000
H        2.16476000       0.01025000       1.10169000
H        1.58649000       0.49363000      -0.49196000
H        2.75472000       1.94669000      -1.85071000
H        4.43851000       2.50086000      -1.41129000
H        1.90602000       2.69965000       0.42856000
H        4.83697000       3.44830000       0.95767000
H        3.52965000       3.44641000       2.15522000
H        3.48920000       4.58837000       0.80110000
19
Properties=species:S:1:pos:R:3 energy=-1763.55 pbc="F F F"
C        1.14979000      -0.21374000      -0.53859000
C        2.66798000      -0.17633000      -0.43376000
N        3.12417000       1.21213000      -0.37799000
C        4.56932000       1.34029000      -0.14882000
C        5.39482000       0.82122000      -1.32799000
C        4.88617000       2.81990000       0.08649000
H        0.80297000      -1.24939000      -0.60739000
H        0.80190000       0.31816000      -1.43011000
H        0.67999000       0.24160000       0.33909000
H        3.08493000      -0.68713000      -1.30811000
H        2.97746000      -0.72254000       0.46504000
H        2.62231000       1.69640000       0.36682000
H        4.85101000       0.79007000       0.75769000
H        5.08658000       1.28992000      -2.26882000
H        5.29978000      -0.26313000      -1.43935000
H        6.45855000       1.03707000      -1.17993000
H        4.61897000       3.43132000      -0.78306000
H        5.95474000       2.96124000       0.28080000
H        4.34026000       3.20738000       0.95405000
16
Properties=species:S:1:pos:R:3 energy=-1615.66 pbc="F F F"
C        0.94269000       0.00024000       0.95587000
C        0.28002000      -1.01269000      -0.03054000
C        0.77002000      -0.01522000      -1.12676000
C        0.29919000       1.00903000      -0.04662000
C       -1.20554000       0.77905000       0.07918000
C       -1.21994000      -0.75243000       0.09132000
H        2.03787000      -0.00996000       0.99034000
H        0.55973000       0.01196000       1.98059000
H        0.64571000      -2.03827000      -0.05318000
H        0.22365000      -0.01762000      -2.07479000
H        1.84477000      -0.02697000      -1.34105000
H        0.68407000       2.02710000      -0.08602000
H       -1.61201000       1.19942000       1.00409000
H       -1.75888000       1.18670000      -0.77204000
H       -1.78075000      -1.16297000      -0.75354000
H       -1.63443000      -1.15029000       1.02261000
16
Properties=species:S:1:pos:R:3 energy=-1467.09 pbc="F F F"
C        2.47193000      -0.81457000       0.63532000
C        1.76095000       0.51583000       0.41122000
N        2.72296000       1.61731000       0.19024000
C        1.96830000       2.79634000      -0.27036000
N        3.55105000       1.85827000       1.24502000
C        4.74519000       2.18507000       0.87617000
H        1.73612000      -1.61897000       0.73572000
H        3.07613000      -0.80036000       1.54764000
H        3.12494000      -1.05919000      -0.20854000
H        1.11379000       0.73611000       1.26968000
H        1.11638000       0.39942000      -0.46946000
H        1.41093000       2.57397000      -1.18697000
H        2.65391000       3.61688000      -0.50977000
H        1.26913000       3.15017000       0.49555000
H        5.50833000       2.40646000       1.63848000
H        5.06056000       2.25685000      -0.17936000
16
Properties=species:S:1:pos:R:3 energy=-1483.97 pbc="F F F"
C        1.15118000      -0.23456000      -0.86067000
C        2.29380000      -0.31854000       0.13732000
N        3.07180000       0.92037000       0.12027000
N        4.12921000       0.95130000       0.96848000
C        4.82059000       2.04214000       0.89237000
C        6.01889000       2.24590000       1.76589000
H        0.57231000      -1.16402000      -0.85065000
H        1.52460000      -0.08069000      -1.87905000
H        0.47001000       0.58826000      -0.61715000
H        2.93860000      -1.16624000      -0.12017000
H        1.89003000      -0.49351000       1.14079000
H        2.44377000       1.71305000       0.27017000
H        4.56925000       2.86163000       0.19452000
H        6.19086000       1.37653000       2.40444000
H        5.85675000       3.13137000       2.38554000
H        6.89273000       2.41698000       1.13288000
17
Properties=species:S:1:pos:R:3 energy=-1612.39 pbc="F F F"
C        1.17535000       0.09563000      -0.15353000
N        2.62967000       0.06091000      -0.05155000
C        3.28327000      -0.63714000      -1.14687000
C        3.39324000       0.87496000      -1.01190000
C        2.73048000       1.73139000      -2.05555000
C        4.68452000       1.44767000      -0.48145000
H        0.78827000       0.96272000       0.38982000
H        0.76438000      -0.79991000       0.32401000
H        0.77584000       0.12421000      -1.17139000
H        2.66965000      -1.05720000      -1.93514000
H        4.13675000      -1.24630000      -0.87134000
H        1.96414000       1.19908000      -2.62810000
H        3.47287000       2.08181000      -2.78245000
H        2.27073000       2.61140000      -1.59404000
H        5.12364000       0.82379000       0.30529000
H        4.51355000       2.44496000      -0.06226000
H        5.42011000       1.53488000      -1.28786000
15
Properties=species:S:1:pos:R:3 energy=-1486.28 pbc="F F F"
C        1.05326000      -0.00127000       0.03548000
N        2.51555000      -0.00999000      -0.06262000
C        2.96919000      -1.18891000      -0.84074000
C        3.33852000      -0.66563000      -2.18441000
C        3.34703000       0.66918000      -2.17377000
C        2.98412000       1.17566000      -0.82164000
H        0.71583000       0.87376000       0.60101000
H        0.70424000      -0.88226000       0.58438000
H        0.56301000       0.01122000      -0.94498000
H        2.20682000      -1.97172000      -0.91246000
H        3.85249000      -1.62290000      -0.35971000
H        3.59282000      -1.28832000      -3.02830000
H        3.60930000       1.30231000      -3.00771000
H        3.87292000       1.59093000      -0.33387000
H        2.23166000       1.96922000      -0.88095000
19
Properties=species:S:1:pos:R:3 energy=-1761.46 pbc="F F F"
C        0.97852000      -0.08058000       0.00163000
N        2.42462000       0.07912000      -0.03307000
C        2.92097000       1.46712000      -0.02961000
C        2.50708000       2.22366000      -1.30338000
C        2.45597000       2.24215000       1.21394000
C        4.45802000       1.37347000       0.00425000
H        0.73995000      -1.14957000      -0.00613000
H        0.48980000       0.36552000      -0.86918000
H        0.54057000       0.33047000       0.91562000
H        2.79009000      -0.40833000      -0.85118000
H        2.80067000       1.67570000      -2.20632000
H        2.98692000       3.20851000      -1.34672000
H        1.42539000       2.39057000      -1.34730000
H        2.69673000       1.69850000       2.13507000
H        1.37632000       2.42744000       1.20267000
H        2.94796000       3.22043000       1.27247000
H        4.80710000       0.84207000       0.89833000
H        4.91577000       2.36999000       0.01496000
H        4.84906000       0.84332000      -0.87303000
15
Properties=species:S:1:pos:R:3 energy=-1464.53 pbc="F F F"
C        1.01249000      -0.02343000      -0.01301000
N        2.46555000       0.01195000       0.04741000
C        2.96070000       1.38568000       0.00000000
C        4.40470000       1.38568000       0.00000000
C        5.59486000       1.38568000       0.00000000
C        7.03886000       1.38568000       0.00000000
H        0.67092000      -1.06224000       0.03110000
H        0.63699000       0.41428000      -0.94377000
H        0.56742000       0.50518000       0.83626000
H        2.85272000      -0.50033000      -0.74418000
H        2.59158000       1.94479000       0.86749000
H        2.59347000       1.89137000      -0.90093000
H        7.43295000       2.40652000      -0.01179000
H        7.43288000       0.86502000      -0.87819000
H        7.43289000       0.88543000       0.88997000
16
Properties=species:S:1:pos:R:3 energy=-1502.55 pbc="F F F"
C        1.00027000      -0.02520000       0.02578000
N        2.44439000       0.05164000      -0.17538000
C        3.12334000      -1.23780000      -0.24827000
C        3.14548000       1.22171000       0.08096000
C        2.39782000       2.48572000       0.46141000
N        4.43061000       1.33458000       0.00854000
H        0.49097000       0.83897000      -0.41208000
H        0.76791000      -0.07199000       1.09449000
H        0.57308000      -0.91069000      -0.45735000
H        2.42763000      -2.06269000      -0.43615000
H        3.64379000      -1.44798000       0.69206000
H        3.84968000      -1.24359000      -1.06762000
H        1.76128000       2.29701000       1.33014000
H        1.78244000       2.81384000      -0.38087000
H        3.09866000       3.28738000       0.71329000
H        4.85041000       0.45231000      -0.27665000
18
Properties=species:S:1:pos:R:3 energy=-1631.59 pbc="F F F"
C        1.49212000      -0.17945000       0.89707000
N        2.89760000       0.18456000       0.77580000
C        3.09504000       1.58621000       0.34878000
C        2.53644000       2.60261000       1.34722000
C        4.60894000       1.86090000       0.12879000
N        5.26618000       0.81941000      -0.67429000
H        1.41332000      -1.25694000       1.07693000
H        0.93183000       0.04764000      -0.01626000
H        1.01794000       0.31934000       1.74797000
H        3.31025000      -0.39407000       0.04044000
H        2.59198000       1.72979000      -0.61739000
H        2.94735000       2.44376000       2.34998000
H        1.44557000       2.54630000       1.41129000
H        2.78814000       3.62354000       1.03936000
H        5.12554000       1.92701000       1.09509000
H        4.73325000       2.82559000      -0.37544000
H        5.30568000      -0.02533000      -0.10184000
H        6.23870000       1.08819000      -0.81832000
18
Properties=species:S:1:pos:R:3 energy=-1623.94 pbc="F F F"
C        1.02646000      -0.09544000       0.03044000
N        2.48185000      -0.03412000       0.03455000
C        2.94441000       1.35827000      -0.00269000
C        4.48548000       1.42672000      -0.00022000
N        4.94652000       2.81994000      -0.03218000
C        6.40202000       2.88300000      -0.03875000
H        0.70542000      -1.14146000       0.06456000
H        0.60740000       0.35561000      -0.87538000
H        0.60562000       0.40636000       0.90826000
H        2.83752000      -0.52484000      -0.78575000
H        2.56051000       1.89743000       0.87266000
H        2.56125000       1.85742000      -0.90192000
H        4.86871000       0.89111000      -0.87759000
H        4.86924000       0.92502000       0.89686000
H        4.59659000       3.30467000       0.79428000
H        6.81575000       2.39397000      -0.92693000
H        6.82906000       2.42014000       0.85720000
H        6.72127000       3.92975000      -0.06116000
14
Properties=species:S:1:pos:R:3 energy=-1325.03 pbc="F F F"
C        1.58357000      -0.38101000       0.13146000
N        2.58588000       0.33293000       0.51891000
N        2.76210000       1.41820000      -0.27003000
C        2.81934000       2.72776000       0.44918000
C        3.87157000       3.17498000      -0.57701000
C        4.17214000       1.67323000      -0.69661000
H        1.32388000      -1.29769000       0.68405000
H        0.95138000      -0.13009000      -0.73864000
H        3.19414000       2.66998000       1.47925000
H        1.88422000       3.29495000       0.44096000
H        3.45240000       3.62432000      -1.48480000
H        4.68089000       3.80367000      -0.19937000
H        4.41570000       1.32174000      -1.70310000
H        4.93643000       1.31239000       0.00366000
10
Properties=species:S:1:pos:R:3 energy=-1042.24 pbc="F F F"
C        1.42681000      -0.21885000      -0.54873000
N        2.68313000      -0.18070000      -0.25576000
N        3.14588000       1.13376000      -0.26845000
C        4.39820000       1.17816000       0.02297000
C        4.91606000       2.51682000       0.02104000
C        5.35513000       3.63512000       0.02096000
H        0.90126000      -1.18530000      -0.58314000
H        0.83225000       0.68342000      -0.77273000
H        5.04900000       0.32135000       0.25599000
H        5.73565000       4.63004000       0.01849000
12
Properties=species:S:1:pos:R:3 energy=-1177.65 pbc="F F F"
C        0.99313000      -0.06802000      -0.01163000
N        2.43067000      -0.03104000      -0.26480000
N        2.99103000       1.20512000      -0.20872000
C        4.20164000       1.23598000      -0.64692000
C        4.78055000       2.54783000      -0.56809000
C        5.26900000       3.64252000      -0.50450000
H        0.62656000      -1.09413000      -0.10960000
H        0.45621000       0.55241000      -0.73607000
H        0.76372000       0.28642000       0.99820000
H        2.88450000      -0.66652000       0.39720000
H        4.78364000       0.39167000      -1.04911000
H        5.69080000       4.61931000      -0.44479000
16
Properties=species:S:1:pos:R:3 energy=-1488.97 pbc="F F F"
N        1.04098000       0.00618000       0.14935000
C        2.48032000       0.02024000      -0.07923000
C        3.13596000       1.06531000       0.84900000
C        4.13173000      -0.02413000       1.30395000
N        5.32064000       0.01183000       0.44909000
C        3.14189000      -1.08473000       0.77254000
H        0.56395000      -0.77904000      -0.29193000
H        0.56714000       0.84501000      -0.18439000
H        2.79509000       0.05995000      -1.12592000
H        2.50414000       1.42378000       1.67359000
H        3.55792000       1.94281000       0.34761000
H        4.34697000      -0.05660000       2.37508000
H        5.14203000       0.03990000      -0.55268000
H        5.95155000      -0.77354000       0.60018000
H        3.56903000      -1.92192000       0.21005000
H        2.51299000      -1.50445000       1.56984000
17
Properties=species:S:1:pos:R:3 energy=-1619.14 pbc="F F F"
N        2.28414000      -0.41266000      -1.43281000
C        2.42123000       0.04449000      -0.05343000
C        3.20150000       1.34815000      -0.00534000
C        2.49234000       2.62779000      -0.52916000
C        3.18939000       3.39300000       0.61428000
C        3.25122000       2.05413000       1.37685000
H        1.76844000      -1.29210000      -1.44548000
H        3.20591000      -0.62176000      -1.81568000
H        2.93779000      -0.72399000       0.53126000
H        1.42343000       0.17219000       0.37906000
H        4.21049000       1.23076000      -0.43064000
H        1.39998000       2.61111000      -0.44202000
H        2.76397000       2.94067000      -1.54057000
H        4.17359000       3.79233000       0.34249000
H        2.60097000       4.18359000       1.08639000
H        4.15825000       1.88563000       1.96323000
H        2.37739000       1.87292000       2.01339000
13
Properties=species:S:1:pos:R:3 energy=-1359.05 pbc="F F F"
N        0.94467000      -0.03712000       0.02763000
C        2.10484000      -0.01768000       0.01942000
C        3.55006000       0.00659000       0.00861000
C        4.21616000       1.05295000       0.93923000
C        5.30373000      -0.00256000       1.22686000
C        4.25134000      -1.07338000       0.87264000
H        3.95762000       0.04528000      -1.01205000
H        3.62949000       1.32700000       1.82456000
H        4.56765000       1.96659000       0.45208000
H        6.14938000       0.03324000       0.53050000
H        5.68400000      -0.02834000       2.25088000
H        4.63233000      -1.94265000       0.32966000
H        3.67496000      -1.42151000       1.73849000
16
Properties=species:S:1:pos:R:3 energy=-1482.03 pbc="F F F"
N        2.31649000      -0.45191000      -1.42980000
C        2.41246000       0.03907000      -0.05731000
C        3.18728000       1.34324000      -0.01230000
C        2.46764000       2.61767000      -0.50336000
N        3.08724000       3.35409000       0.62723000
C        3.21016000       2.06707000       1.35072000
H        1.77653000      -1.31701000      -1.43970000
H        3.24522000      -0.69904000      -1.77063000
H        2.91232000      -0.71663000       0.55819000
H        1.40130000       0.17129000       0.34437000
H        4.19880000       1.23948000      -0.43367000
H        1.37293000       2.58836000      -0.44953000
H        2.76038000       2.97377000      -1.49561000
H        3.98939000       3.76360000       0.38250000
H        4.13085000       1.95356000       1.93047000
H        2.35641000       1.85793000       2.00641000
16
Properties=species:S:1:pos:R:3 energy=-1620.42 pbc="F F F"
C        0.79675000       1.38843000      -0.62875000
C       -0.32286000       0.95376000       0.27655000
C       -1.39414000       0.00815000      -0.18700000
C       -0.79286000      -1.37843000       0.07362000
C        0.70895000      -1.19744000      -0.17414000
C        0.97929000       0.20729000       0.28444000
H        0.70378000       1.21487000      -1.69438000
H        1.32080000       2.30547000      -0.37903000
H       -0.58638000       1.54598000       1.14117000
H       -2.32930000       0.14462000       0.36281000
H       -1.59560000       0.14733000      -1.25503000
H       -0.95572000      -1.65037000       1.12478000
H       -1.23687000      -2.15883000      -0.55118000
H        1.29429000      -1.93224000       0.38498000
H        0.94084000      -1.30652000      -1.23932000
H        1.61567000       0.28404000       1.15451000
18
Properties=species:S:1:pos:R:3 energy=-1637.27 pbc="F F F"
N        0.98123000      -0.02662000       0.01882000
C        2.43938000      -0.03283000       0.01367000
C        2.97295000       1.39811000      -0.00533000
C        4.50299000       1.41676000      -0.00015000
C        5.03613000       2.84750000      -0.01844000
N        6.49451000       2.84137000      -0.02779000
H        0.64050000      -0.98686000      -0.01067000
H        0.63751000       0.42215000      -0.82946000
H        2.79749000      -0.58389000      -0.86267000
H        2.79684000      -0.55646000       0.90669000
H        2.59768000       1.94609000       0.86850000
H        2.60436000       1.92129000      -0.89699000
H        4.87772000       0.86949000      -0.87423000
H        4.87145000       0.89334000       0.89101000
H        4.68071000       3.39752000       0.85997000
H        4.67642000       3.37309000      -0.90960000
H        6.84068000       2.39085000       0.81867000
H        6.83534000       3.80171000       0.00263000
8
Properties=species:S:1:pos:R:3 energy=-967.43 pbc="F F F"
N        1.00000000       0.00000000       0.00000000
C        2.15101000       0.00000000       0.00000000
C        3.55701000       0.00000000       0.00000000
C        4.21403000       1.13799000       0.00000000
C        5.62003000       1.13799000       0.00000000
N        6.77104000       1.13799000       0.00000000
H        4.05725000      -0.96321000      -0.00000000
H        3.71379000       2.10120000      -0.00000000
6
Properties=species:S:1:pos:R:3 energy=-785.04 pbc="F F F"
N        0.82332000       0.00000000       0.00000000
C        1.98303000       0.00000000       0.00000000
C        3.51408000       0.00000000       0.00000000
C        4.71410000       0.00000000       0.00000000
C        6.24515000       0.00000000       0.00000000
N        7.40486000       0.00000000       0.00000000
16
Properties=species:S:1:pos:R:3 energy=-1494.17 pbc="F F F"
N        2.62452000      -0.52471000       1.27458000
C        2.40979000       0.14431000      -0.00100000
C        2.83371000       1.59072000       0.06465000
C        1.92861000       2.57421000      -0.10124000
C        4.31072000       1.81643000       0.30250000
N        4.72330000       3.21745000       0.25322000
H        2.22459000      -1.46023000       1.22991000
H        2.09441000      -0.02807000       1.99110000
H        1.35158000       0.05491000      -0.27260000
H        2.98037000      -0.36971000      -0.78275000
H        0.87859000       2.36259000      -0.27376000
H        2.20968000       3.62160000      -0.04833000
H        4.88620000       1.26266000      -0.44906000
H        4.58419000       1.41875000       1.28567000
H        4.63073000       3.54670000      -0.70611000
H        5.71625000       3.26996000       0.47506000
14
Properties=species:S:1:pos:R:3 energy=-1337.98 pbc="F F F"
N        1.01581000      -0.02046000       0.04343000
C        2.47000000       0.00000000       0.00000000
C        2.95202000       1.36117000       0.00000000
C        3.34930000       2.48307000       0.00000000
C        3.83132000       3.84424000       0.00000000
N        2.72316000       4.77348000      -0.15547000
H        0.69028000      -0.97473000      -0.08828000
H        0.65459000       0.52276000      -0.73859000
H        2.81204000      -0.52378000      -0.89902000
H        2.86116000      -0.54659000       0.86404000
H        4.54690000       3.99529000      -0.81523000
H        4.35370000       4.06527000       0.93635000
H        2.23611000       4.56434000      -1.02515000
H        3.08880000       5.71842000      -0.24551000
16
Properties=species:S:1:pos:R:3 energy=-1480.89 pbc="F F F"
N        0.47091000       0.20197000       0.01872000
C        1.83666000      -0.01652000      -0.46794000
C        2.88926000       0.46335000       0.54688000
N        4.24639000       0.26756000       0.01409000
C        5.25955000       0.14815000       1.05789000
C        4.79393000      -1.05812000       0.28527000
H       -0.18568000      -0.12555000      -0.68948000
H        0.30615000       1.20433000       0.11093000
H        1.96262000       0.50901000      -1.42187000
H        1.96653000      -1.08712000      -0.66109000
H        2.72907000      -0.04448000       1.50774000
H        2.74987000       1.53610000       0.73094000
H        4.95914000       0.24757000       2.09395000
H        6.23464000       0.55783000       0.82014000
H        5.45038000      -1.45974000      -0.47711000
H        4.16773000      -1.78761000       0.78591000
12
Properties=species:S:1:pos:R:3 energy=-1246.86 pbc="F F F"
C       -1.40020000       0.05651000      -0.38614000
C       -0.41397000      -0.75114000       0.54634000
O       -0.56753000       0.46269000       1.45577000
C       -0.34701000       1.12807000       0.10195000
C        0.97768000       0.66145000      -0.38390000
C        0.93164000      -0.64196000      -0.07562000
H       -1.40188000      -0.19520000      -1.44995000
H       -2.42327000       0.17986000      -0.01831000
H       -0.73524000      -1.68820000       0.99985000
H       -0.59721000       2.18772000       0.08280000
H        1.76683000       1.23330000      -0.84130000
H        1.67257000      -1.40984000      -0.21580000
16
Properties=species:S:1:pos:R:3 energy=-1567.83 pbc="F F F"
C        0.74007000       1.27859000      -0.20172000
C       -0.72515000       1.23583000       0.21998000
C       -1.38316000      -0.05595000      -0.24758000
O       -0.66452000      -1.19249000       0.23404000
C        0.67682000      -1.22797000      -0.25543000
C        1.45422000      -0.00371000       0.21032000
H        0.80183000       1.39640000      -1.29056000
H        1.23592000       2.14743000       0.24527000
H       -1.26190000       2.10308000      -0.17835000
H       -0.77511000       1.28831000       1.31467000
H       -2.40317000      -0.11694000       0.14337000
H       -1.44356000      -0.09974000      -1.34074000
H        1.14789000      -2.13763000       0.12992000
H        0.66336000      -1.29967000      -1.34939000
H        1.53281000      -0.02395000       1.30429000
H        2.47099000      -0.02095000      -0.19533000
14
Properties=species:S:1:pos:R:3 energy=-1365.17 pbc="F F F"
C        0.69646000       1.24032000      -0.21706000
C       -0.74983000       1.19839000       0.24389000
O       -1.37608000       0.00252000      -0.21150000
C       -0.66995000      -1.14563000       0.24316000
O        0.66804000      -1.17329000      -0.23887000
C        1.39619000      -0.03644000       0.21522000
H        0.71091000       1.29091000      -1.31212000
H        1.20956000       2.12299000       0.17490000
H       -1.30379000       2.04841000      -0.16706000
H       -0.82281000       1.25226000       1.33705000
H       -0.68867000      -1.20365000       1.33842000
H       -1.18347000      -2.02902000      -0.14607000
H        1.50146000      -0.08496000       1.30576000
H        2.40099000      -0.08304000      -0.21673000
14
Properties=species:S:1:pos:R:3 energy=-1404.56 pbc="F F F"
C        0.97998000      -0.01935000       0.95183000
C        0.28802000      -1.03230000      -0.02758000
C        0.79663000      -0.03093000      -1.12465000
C        0.24855000       0.96102000      -0.03531000
O       -1.17493000       0.71238000       0.09060000
C       -1.21237000      -0.72425000       0.10252000
H        2.07524000       0.00088000       0.95127000
H        0.61877000      -0.02102000       1.98408000
H        0.63232000      -2.06441000      -0.05209000
H        0.25966000      -0.04416000      -2.07729000
H        1.87489000      -0.01204000      -1.31672000
H        0.53403000       2.01133000      -0.06649000
H       -1.79212000      -1.08960000      -0.74954000
H       -1.63493000      -1.07946000       1.04615000
12
Properties=species:S:1:pos:R:3 energy=-1211.77 pbc="F F F"
C        0.67132000       1.21136000      -0.27604000
O       -0.76012000       1.37262000      -0.21246000
C       -1.35870000       0.06383000      -0.29849000
C       -0.32634000      -0.90061000       0.16159000
O        0.71236000      -1.22105000      -0.77028000
C        0.95773000      -0.17484000       0.17571000
H        1.00067000       1.38087000      -1.30638000
H        1.13136000       1.96001000       0.37500000
H       -2.24797000       0.04979000       0.33765000
H       -1.65644000      -0.12104000      -1.33565000
H       -0.59529000      -1.58199000       0.94970000
H        1.66668000      -0.30327000       0.97480000
16
Properties=species:S:1:pos:R:3 energy=-1606.04 pbc="F F F"
C        0.99661000       0.20420000      -0.32454000
C        2.45965000       0.05600000       0.00288000
C        3.00124000      -1.16604000       0.14518000
C        3.24070000       1.30449000       0.08160000
C        2.84906000       2.36605000       1.07789000
C        4.10168000       1.56986000       1.29134000
H        0.86817000       0.81414000      -1.22495000
H        0.46486000       0.68829000       0.50145000
H        0.51411000      -0.76194000      -0.50896000
H        2.40694000      -2.06961000       0.05954000
H        4.06036000      -1.28802000       0.35140000
H        3.62181000       1.64642000      -0.87757000
H        2.02121000       2.18372000       1.75288000
H        2.95081000       3.40217000       0.77633000
H        5.05281000       2.06498000       1.13383000
H        4.10760000       0.85347000       2.10462000
14
Properties=species:S:1:pos:R:3 energy=-1427.89 pbc="F F F"
C        0.95434000      -0.01250000       0.04854000
C        2.46926000       0.01832000       0.02936000
C        3.15070000       1.08972000       0.93385000
C        4.17432000      -0.01285000       1.29434000
O        5.30267000      -0.01265000       1.73382000
C        3.19502000      -1.11270000       0.81981000
H        0.57941000      -0.85779000      -0.53671000
H        0.54532000       0.90501000      -0.38722000
H        0.56496000      -0.10619000       1.06778000
H        2.83133000       0.08048000      -1.00697000
H        2.56691000       1.42435000       1.79656000
H        3.56791000       1.94877000       0.40468000
H        3.64520000      -1.89610000       0.20682000
H        2.62720000      -1.55710000       1.64336000
16
Properties=species:S:1:pos:R:3 energy=-1550.3 pbc="F F F"
C        0.84806000       0.29792000      -0.28547000
C        2.29388000       0.09514000       0.08645000
C        2.58747000       0.17442000       1.56608000
O        2.30018000      -1.07448000       2.18068000
C        3.11287000      -0.86753000      -0.74920000
C        3.34302000       0.61016000      -0.87923000
H        0.69369000       0.24735000      -1.36894000
H        0.50135000       1.27882000       0.05542000
H        0.21901000      -0.46974000       0.17579000
H        1.98781000       0.95249000       2.04942000
H        3.64151000       0.40100000       1.75737000
H        1.39533000      -1.31846000       1.92747000
H        2.63194000      -1.38307000      -1.57299000
H        3.87371000      -1.46034000      -0.25133000
H        4.27027000       1.01167000      -0.48441000
H        3.01886000       1.09389000      -1.79451000
14
Properties=species:S:1:pos:R:3 energy=-1365.5 pbc="F F F"
C        1.16891000      -0.05652000       0.16961000
C        2.65875000       0.05477000      -0.08646000
O        3.19969000       1.13918000       0.67875000
C        4.44938000       0.63787000       1.14774000
C        4.16661000      -0.82346000       1.36334000
O        3.31449000      -1.16937000       0.27111000
H        0.73648000      -0.88766000      -0.39577000
H        0.65609000       0.87197000      -0.09969000
H        0.97270000      -0.24393000       1.23098000
H        2.84870000       0.24549000      -1.14819000
H        5.19735000       0.79420000       0.36284000
H        4.76178000       1.15872000       2.05635000
H        5.06666000      -1.44463000       1.36304000
H        3.61104000      -0.99266000       2.29173000
14
Properties=species:S:1:pos:R:3 energy=-1349.17 pbc="F F F"
C        0.92632000      -0.01297000       0.04079000
C        2.44067000       0.00373000      -0.04407000
O        2.83818000       0.04229000      -1.43895000
C        3.14448000       1.01654000       0.88533000
O        4.05726000      -0.01528000       1.35332000
C        3.16611000      -1.04006000       0.83388000
H        0.57781000      -0.04010000       1.07869000
H        0.51809000      -0.89128000      -0.47084000
H        0.50117000       0.87933000      -0.43029000
H        3.81214000       0.04805000      -1.41740000
H        2.55040000       1.42224000       1.70977000
H        3.67759000       1.82676000       0.38058000
H        3.71526000      -1.81251000       0.28916000
H        2.58061000      -1.49907000       1.63628000
18
Properties=species:S:1:pos:R:3 energy=-1774.46 pbc="F F F"
C        0.73127000       1.26310000      -0.22212000
C       -0.72780000       1.26100000       0.22689000
C       -1.45645000       0.00143000      -0.23355000
C       -0.72882000      -1.26358000       0.21251000
C        0.73007000      -1.26203000      -0.23641000
C        1.45934000      -0.00259000       0.22314000
H        0.77532000       1.34378000      -1.31538000
H        1.24089000       2.14423000       0.18386000
H       -1.23672000       2.14721000      -0.16883000
H       -0.77212000       1.32856000       1.32099000
H       -2.47738000      -0.00038000       0.16420000
H       -1.53916000       0.00770000      -1.32734000
H       -0.77333000      -1.34378000       1.30582000
H       -1.23856000      -2.14490000      -0.19336000
H        1.23910000      -2.14829000       0.15957000
H        0.77446000      -1.33025000      -1.33040000
H        1.54048000      -0.00872000       1.31607000
H        2.47994000      -0.00055000      -0.17551000
16
Properties=species:S:1:pos:R:3 energy=-1552.41 pbc="F F F"
C        3.07093000      -1.19092000      -0.46990000
C        2.36548000       0.01658000       0.12739000
C        3.27003000       1.21273000       0.20707000
O        4.39855000       1.05811000       1.07811000
C        3.50406000       2.06982000      -1.00499000
C        2.69354000       2.60049000       0.14551000
H        2.38684000      -2.04348000      -0.52213000
H        3.93456000      -1.48416000       0.13558000
H        3.42851000      -0.97608000      -1.48210000
H        2.00877000      -0.23124000       1.13388000
H        1.47839000       0.24388000      -0.47625000
H        4.11855000       1.00013000       2.00763000
H        2.98454000       1.82279000      -1.92289000
H        4.50061000       2.46907000      -1.15460000
H        3.14218000       3.37095000       0.76172000
H        1.62615000       2.71591000      -0.00003000
18
Properties=species:S:1:pos:R:3 energy=-1696.13 pbc="F F F"
C        0.98813000      -0.05721000       0.00975000
C        2.50834000      -0.02637000       0.01279000
C        3.03961000       1.40702000       0.00112000
C        4.56599000       1.43392000       0.00607000
C        5.10215000       2.85964000       0.00546000
O        6.52327000       2.84045000      -0.00299000
H        0.63027000      -1.09129000       0.02136000
H        0.58790000       0.43097000      -0.88448000
H        0.58378000       0.45226000       0.88998000
H        2.88106000      -0.56890000      -0.86379000
H        2.87668000      -0.55258000       0.90109000
H        2.65943000       1.94624000       0.87755000
H        2.66528000       1.93032000      -0.88727000
H        4.95913000       0.89901000      -0.86693000
H        4.95162000       0.90030000       0.88355000
H        4.76799000       3.41186000       0.89000000
H        4.76710000       3.40202000      -0.88421000
H        6.81450000       2.37492000       0.79964000
16
Properties=species:S:1:pos:R:3 energy=-1555.89 pbc="F F F"
C        0.63188000       0.26671000      -0.03639000
C        2.07680000      -0.01846000       0.21621000
C        3.06986000       0.84364000      -0.04953000
C        4.52825000       0.54919000       0.19451000
C        5.14816000       1.51524000       1.20453000
O        4.67040000       1.25589000       2.52072000
H        0.22583000      -0.46440000      -0.74203000
H        0.47402000       1.26709000      -0.45157000
H        0.06900000       0.19272000       0.89880000
H        2.30605000      -0.99526000       0.63913000
H        2.83875000       1.81642000      -0.48135000
H        5.05680000       0.63792000      -0.76149000
H        4.65459000      -0.48098000       0.54875000
H        4.93402000       2.55976000       0.95395000
H        6.23493000       1.38793000       1.22058000
H        3.69756000       1.26604000       2.47840000
18
Properties=species:S:1:pos:R:3 energy=-1697.69 pbc="F F F"
C        0.99511000      -0.01391000      -0.01515000
C        2.53261000      -0.02199000       0.01340000
C        3.00627000      -0.75844000       1.27809000
C        3.05791000      -0.76989000      -1.22382000
C        3.03719000       1.43660000       0.00939000
O        4.45651000       1.51423000      -0.00823000
H        0.61894000       0.49324000      -0.91042000
H        0.58668000       0.50444000       0.85933000
H        0.59298000      -1.03299000      -0.01659000
H        2.68772000      -0.23043000       2.18351000
H        4.09697000      -0.85053000       1.30880000
H        2.59231000      -1.77211000       1.32132000
H        2.74910000      -0.26829000      -2.14741000
H        2.67303000      -1.79512000      -1.25741000
H        4.15158000      -0.82813000      -1.22429000
H        2.67549000       1.98506000       0.88655000
H        2.67235000       1.96467000      -0.87852000
H        4.77997000       1.21785000       0.85889000
16
Properties=species:S:1:pos:R:3 energy=-1572.05 pbc="F F F"
C        0.97480000      -0.16443000      -0.14717000
C        2.48917000      -0.03106000      -0.04166000
C        3.20138000      -0.86180000      -1.10224000
C        2.89223000       1.43809000      -0.09338000
C        2.89787000       2.14110000      -1.42756000
O        3.17701000       2.04901000       0.93892000
H        0.47538000       0.45140000       0.60890000
H        0.66544000      -1.20398000       0.00435000
H        0.60804000       0.15673000      -1.12794000
H        2.80221000      -0.40679000       0.94106000
H        2.87219000      -0.59798000      -2.11297000
H        3.00198000      -1.92846000      -0.95490000
H        4.28482000      -0.70950000      -1.05431000
H        1.94192000       1.99625000      -1.93552000
H        3.71710000       1.76399000      -2.04405000
H        3.04406000       3.21423000      -1.27214000
18
Properties=species:S:1:pos:R:3 energy=-1700.91 pbc="F F F"
C        0.91522000      -0.09208000      -0.00468000
C        2.43061000       0.04260000      -0.00071000
C        2.96927000       1.48625000      -0.01100000
C        2.56008000       2.24634000      -1.27340000
C        2.55980000       2.27181000       1.23672000
O        4.40127000       1.40928000      -0.02575000
H        0.63669000      -1.15117000       0.00690000
H        0.47318000       0.35425000      -0.90010000
H        0.46686000       0.37575000       0.87652000
H        2.83719000      -0.49855000      -0.86513000
H        2.82849000      -0.48444000       0.87634000
H        2.85858000       1.69604000      -2.17297000
H        3.06802000       3.21668000      -1.32387000
H        1.48157000       2.42518000      -1.31650000
H        2.85175000       1.73669000       2.14718000
H        1.48199000       2.45547000       1.27249000
H        3.07258000       3.24000000       1.27036000
H        4.68475000       0.95126000       0.78403000
18
Properties=species:S:1:pos:R:3 energy=-1687.56 pbc="F F F"
C        0.98578000      -0.11681000       0.00477000
C        2.50532000      -0.06437000       0.01086000
C        3.01518000       1.37393000      -0.00255000
C        4.53831000       1.43176000       0.00093000
O        4.93429000       2.80219000       0.00299000
C        6.34871000       2.93934000       0.00073000
H        0.64220000      -1.15588000       0.01855000
H        0.58048000       0.36324000      -0.89166000
H        0.57226000       0.38950000       0.88283000
H        2.88729000      -0.60378000      -0.86377000
H        2.87917000      -0.58365000       0.90107000
H        2.62902000       1.92149000       0.86613000
H        2.63431000       1.90375000      -0.88450000
H        4.93880000       0.93606000      -0.89107000
H        4.93496000       0.93555000       0.89431000
H        6.59172000       4.00542000       0.01435000
H        6.77477000       2.49534000      -0.90427000
H        6.78141000       2.47105000       0.89027000
12
Properties=species:S:1:pos:R:3 energy=-1247.44 pbc="F F F"
C        1.01990000       0.01128000      -0.11901000
C        2.50738000      -0.08635000       0.02650000
C        3.17296000      -1.25398000       0.02546000
C        3.20622000       1.20495000       0.24928000
O        4.40092000       1.28069000      -0.37102000
O        2.71912000       2.12903000       0.87855000
H        0.76091000       0.66450000      -0.95886000
H        0.56780000       0.41845000       0.79137000
H        0.56417000      -0.96662000      -0.30760000
H        2.64578000      -2.19497000      -0.10693000
H        4.24147000      -1.32063000       0.20698000
H        4.57911000       0.52755000      -0.96279000
14
Properties=species:S:1:pos:R:3 energy=-1389.49 pbc="F F F"
C        0.97704000      -0.02472000      -0.09376000
C        2.50034000       0.00390000      -0.04796000
C        3.12437000      -0.88297000      -1.11912000
C        3.02649000       1.42357000      -0.13422000
O        2.73377000       2.06511000      -1.28607000
O        3.66578000       1.95853000       0.75973000
H        0.55259000       0.64670000       0.66043000
H        0.60382000      -1.03522000       0.10277000
H        0.59255000       0.29045000      -1.06942000
H        2.81346000      -0.38256000       0.93090000
H        2.80339000      -0.59397000      -2.12539000
H        2.84291000      -1.93009000      -0.96567000
H        4.21743000      -0.81743000      -1.09012000
H        2.21916000       1.53796000      -1.92390000
16
Properties=species:S:1:pos:R:3 energy=-1573.54 pbc="F F F"
C        1.44670000      -0.59906000      -0.45398000
C        2.91710000      -0.35100000      -0.16931000
C        3.24591000       1.12557000      -0.02190000
O        2.38483000       2.00045000      -0.09957000
C        4.70933000       1.44828000       0.23138000
C        4.96521000       2.93767000       0.37489000
H        1.25358000      -1.67146000      -0.55354000
H        1.13821000      -0.10792000      -1.38259000
H        0.81870000      -0.21184000       0.35492000
H        3.52056000      -0.75521000      -0.98896000
H        3.20150000      -0.85797000       0.75882000
H        5.29504000       1.05582000      -0.60651000
H        5.01895000       0.93410000       1.14728000
H        4.66644000       3.47720000      -0.52989000
H        6.02874000       3.12650000       0.55023000
H        4.40054000       3.35417000       1.21549000
14
Properties=species:S:1:pos:R:3 energy=-1385.01 pbc="F F F"
C        0.67222000      -0.03877000       0.22062000
C        2.03771000      -0.70157000       0.17458000
C        3.06220000       0.15763000      -0.52579000
O        2.85377000       1.26267000      -1.00935000
O        4.26280000      -0.48816000      -0.53771000
C        5.30884000       0.24178000      -1.18058000
H       -0.04784000      -0.68384000       0.73357000
H        0.29645000       0.15879000      -0.78907000
H        0.71640000       0.91694000       0.75389000
H        1.96038000      -1.65390000      -0.36009000
H        2.38376000      -0.89000000       1.19611000
H        5.49332000       1.18620000      -0.65841000
H        5.06157000       0.42088000      -2.23149000
H        6.21976000      -0.36109000      -1.13675000
18
Properties=species:S:1:pos:R:3 energy=-1751.18 pbc="F F F"
C        1.06576000       0.09860000      -0.11179000
C        2.55565000       0.07334000      -0.06565000
C        3.33763000      -0.62547000      -1.14781000
C        3.43203000       0.88155000      -1.01118000
C        2.81291000       1.72597000      -2.09503000
C        4.70260000       1.46188000      -0.44367000
H        0.68746000       0.95235000       0.45875000
H        0.66563000      -0.81452000       0.34066000
H        0.66923000       0.16268000      -1.12930000
H        2.90065000      -0.05476000       0.95587000
H        2.79712000      -1.03823000      -1.99294000
H        4.18755000      -1.22814000      -0.84717000
H        1.99665000       1.21426000      -2.61422000
H        3.56307000       1.98409000      -2.85065000
H        2.41947000       2.65628000      -1.67231000
H        5.12507000       0.83118000       0.34689000
H        4.51070000       2.45173000      -0.01700000
H        5.45929000       1.56461000      -1.22857000
12
Properties=species:S:1:pos:R:3 energy=-1245.09 pbc="F F F"
C        1.02270000      -0.27640000       0.35984000
C        2.21653000       0.05994000      -0.48321000
O        2.79651000      -0.74662000      -1.19839000
C        2.70682000       1.49784000      -0.41973000
C        3.89746000       1.83561000      -1.26671000
O        2.12927000       2.30402000       0.29927000
H        0.16759000       0.33050000       0.05155000
H        1.25264000      -0.10467000       1.41444000
H        0.76839000      -1.33162000       0.22515000
H        3.66570000       1.65916000      -2.32001000
H        4.75536000       1.23312000      -0.95808000
H        4.14807000       2.89239000      -1.13682000
18
Properties=species:S:1:pos:R:3 energy=-1688.27 pbc="F F F"
C        1.66629000       2.70390000       0.68197000
O        3.00032000       2.27771000       0.92366000
C        3.64208000       1.84718000      -0.27624000
C        5.07573000       1.40709000       0.04449000
C        5.74384000       0.82055000      -1.19721000
C        5.90508000       2.56916000       0.59547000
H        1.22881000       3.02152000       1.63243000
H        1.06802000       1.88088000       0.27969000
H        1.65420000       3.55221000      -0.00902000
H        3.64678000       2.66737000      -1.00461000
H        3.07935000       1.00640000      -0.69925000
H        5.03717000       0.63363000       0.82213000
H        5.80706000       1.56087000      -2.00198000
H        5.18038000      -0.04029000      -1.57201000
H        6.75964000       0.48083000      -0.96903000
H        5.96632000       3.39007000      -0.12715000
H        6.92540000       2.24276000       0.82343000
H        5.47026000       2.96304000       1.51992000
16
Properties=species:S:1:pos:R:3 energy=-1489.92 pbc="F F F"
C        2.12288000      -0.76873000      -0.21374000
O        3.41478000      -0.18508000      -0.08531000
C        3.33748000       1.23528000       0.05510000
C        4.74900000       1.81431000       0.12564000
C        5.54279000       1.27171000       1.31022000
O        5.84488000      -0.10718000       1.14594000
H        2.24482000      -1.84814000      -0.33403000
H        1.60965000      -0.37389000      -1.09568000
H        1.52914000      -0.58040000       0.68536000
H        2.78002000       1.48230000       0.96610000
H        2.81242000       1.66109000      -0.80789000
H        4.68610000       2.90539000       0.19603000
H        5.28005000       1.55770000      -0.79890000
H        4.99099000       1.39837000       2.24838000
H        6.49246000       1.80785000       1.40189000
H        5.04821000      -0.52445000       0.75433000
16
Properties=species:S:1:pos:R:3 energy=-1486.13 pbc="F F F"
C        2.20402000       4.08987000       2.18016000
O        2.28969000       2.71226000       2.51180000
C        3.22903000       1.97326000       1.73145000
C        2.82161000       1.89225000       0.26455000
O        4.55474000       2.49453000       1.81042000
C        5.11553000       2.32446000       3.10596000
H        1.50350000       4.56081000       2.87650000
H        1.81406000       4.23193000       1.16823000
H        3.17344000       4.58562000       2.28797000
H        3.22724000       0.94929000       2.12492000
H        2.92948000       2.86014000      -0.23588000
H        1.78106000       1.57159000       0.16187000
H        3.47007000       1.19238000      -0.27310000
H        6.13482000       2.71842000       3.09020000
H        5.15827000       1.26379000       3.37155000
H        4.54277000       2.87830000       3.85462000
10
Properties=species:S:1:pos:R:3 energy=-1076.78 pbc="F F F"
O        1.40794000      -0.25003000      -0.07419000
C        0.47797000      -1.27278000      -0.07722000
C       -0.83867000      -1.03899000      -0.08310000
O       -1.36030000       0.24129000      -0.08656000
C       -0.42987000       1.26431000      -0.08351000
C        0.88647000       1.03066000      -0.07763000
H        0.94340000      -2.24614000      -0.07429000
H       -1.61054000      -1.79311000      -0.08568000
H       -0.89575000       2.23781000      -0.08643000
H        1.65905000       1.78405000      -0.07504000
16
Properties=species:S:1:pos:R:3 energy=-1614.48 pbc="F F F"
C        1.06407000      -0.12397000       0.41401000
C        2.48370000      -0.01707000      -0.08940000
C        3.08252000      -1.12323000      -0.56869000
C        3.14849000       1.29590000      -0.05615000
C        4.44979000       1.46883000      -0.80389000
C        2.63547000       2.35640000       0.59556000
H        0.41100000       0.58259000      -0.11111000
H        1.01540000       0.07630000       1.49020000
H        0.64316000      -1.12370000       0.25417000
H        2.56676000      -2.07880000      -0.58745000
H        4.09811000      -1.13219000      -0.94771000
H        4.33276000       1.19143000      -1.85743000
H        5.24024000       0.85488000      -0.35792000
H        4.80144000       2.50710000      -0.78630000
H        1.70811000       2.31689000       1.15550000
H        3.14436000       3.31580000       0.59771000
14
Properties=species:S:1:pos:R:3 energy=-1356.07 pbc="F F F"
O        0.93553000       0.02083000       0.00151000
C        2.37417000       0.03054000       0.00145000
C        3.05215000       1.05847000       0.93120000
C        4.11983000      -0.01209000       1.23972000
C        3.07417000      -1.07786000       0.84773000
O        3.55000000      -2.23204000       0.12689000
H        0.69585000      -0.83136000      -0.40487000
H        2.75010000       0.07785000      -1.02876000
H        2.44620000       1.34492000       1.79845000
H        3.42666000       1.96286000       0.44498000
H        4.99202000       0.02793000       0.57849000
H        4.46156000      -0.04291000       2.27750000
H        2.46197000      -1.40258000       1.69946000
H        4.16580000      -1.89016000      -0.54376000
16
Properties=species:S:1:pos:R:3 energy=-1571.14 pbc="F F F"
O        1.01839000       0.03396000      -0.01756000
C        2.43252000       0.01086000       0.01000000
C        2.97597000       1.12960000       0.88334000
C        4.38449000       0.65542000       1.19302000
C        4.23462000      -0.84763000       1.40970000
C        2.96610000      -1.26152000       0.66257000
H        0.72396000      -0.74579000      -0.51845000
H        2.81060000       0.10762000      -1.01435000
H        2.38319000       1.23580000       1.79970000
H        2.96170000       2.09627000       0.37077000
H        5.04158000       0.84381000       0.33646000
H        4.81310000       1.15985000       2.06440000
H        5.11550000      -1.39110000       1.05300000
H        4.12259000      -1.06872000       2.47748000
H        3.17894000      -2.02619000      -0.09242000
H        2.23637000      -1.69557000       1.35543000
10
Properties=species:S:1:pos:R:3 energy=-1157.14 pbc="F F F"
O        0.92916000      -0.00014000       0.00700000
C        2.14424000       0.00021000       0.00186000
C        3.00318000       1.19367000      -0.00155000
C        4.25294000       0.71840000      -0.00692000
C        4.25241000      -0.71764000      -0.00718000
C        3.00442000      -1.19250000      -0.00200000
H        2.64742000       2.20673000       0.00015000
H        5.15164000       1.31789000      -0.01060000
H        5.15127000      -1.31734000      -0.01109000
H        2.64835000      -2.20574000      -0.00068000
14
Properties=species:S:1:pos:R:3 energy=-1452.75 pbc="F F F"
C        1.02380000       0.06948000       0.18130000
C        2.50204000      -0.16366000       0.02826000
C        3.00945000      -1.40502000      -0.06548000
C        3.37483000       1.06690000      -0.05569000
C        3.46678000       1.73243000       1.25218000
C        3.54658000       2.28030000       2.31833000
H        0.80683000       0.57813000       1.12578000
H        0.45808000      -0.86840000       0.17369000
H        0.64992000       0.68739000      -0.64162000
H        2.37437000      -2.28448000      -0.01583000
H        4.07527000      -1.57618000      -0.18450000
H        2.96589000       1.75459000      -0.80517000
H        4.38307000       0.80361000      -0.39814000
H        3.61645000       2.76237000       3.26592000
14
Properties=species:S:1:pos:R:3 energy=-1407.59 pbc="F F F"
O        1.08538000      -0.07419000       0.14501000
C        2.47646000       0.08737000      -0.09181000
C        2.85846000      -0.49401000      -1.42447000
C        2.03623000      -1.06663000      -2.31579000
C        2.77762000       1.55585000      -0.03450000
C        3.62666000       2.13183000       0.82841000
H        0.88908000       0.41335000       0.96219000
H        3.01168000      -0.45871000       0.69346000
H        3.91798000      -0.44276000      -1.66705000
H        0.96966000      -1.15155000      -2.12658000
H        2.41431000      -1.46216000      -3.25239000
H        2.25415000       2.18055000      -0.75608000
H        4.17487000       1.55360000       1.56541000
H        3.79356000       3.20471000       0.80699000
16
Properties=species:S:1:pos:R:3 energy=-1498.24 pbc="F F F"
O        2.34427000      -0.98505000       0.96432000
C        2.15639000      -0.05324000      -0.09348000
C        2.94598000       1.22238000       0.17603000
C        4.46748000       1.09057000       0.00752000
C        5.17305000       0.31366000       1.11388000
O        4.96832000      -1.08272000       0.97558000
H        1.71718000      -1.71500000       0.80517000
H        1.08888000       0.18163000      -0.14870000
H        2.46188000      -0.51883000      -1.03525000
H        2.72751000       1.58989000       1.18612000
H        2.60016000       1.98751000      -0.53052000
H        4.88376000       2.10574000      -0.00592000
H        4.68450000       0.63631000      -0.96668000
H        4.84120000       0.62927000       2.10809000
H        6.25126000       0.48766000       1.05020000
H        4.01042000      -1.22891000       1.13428000
18
Properties=species:S:1:pos:R:3 energy=-1755.17 pbc="F F F"
C        0.94355000      -0.14255000      -0.00114000
C        2.44653000      -0.01062000      -0.00347000
C        3.14971000      -1.34874000      -0.00854000
C        3.13047000       1.15968000      -0.00111000
C        2.50379000       2.53354000       0.00217000
C        4.64170000       1.23455000      -0.00241000
H        0.40561000       0.80530000       0.01161000
H        0.62063000      -0.70543000       0.88158000
H        0.61633000      -0.68620000      -0.89425000
H        2.43464000      -2.17894000      -0.00376000
H        3.77644000      -1.46199000       0.88213000
H        3.76423000      -1.46086000      -0.90783000
H        1.41374000       2.53420000      -0.01021000
H        2.83370000       3.09611000      -0.87810000
H        2.81584000       3.08357000       0.89670000
H        5.13302000       0.25892000      -0.00158000
H        4.99082000       1.77378000       0.88483000
H        4.98936000       1.77157000      -0.89158000
13
Properties=species:S:1:pos:R:3 energy=-1273.48 pbc="F F F"
C        0.42650000       1.44650000       0.20216000
C        1.33820000       0.28524000      -0.12880000
O        0.90086000      -0.83456000       0.64079000
N       -0.33473000      -1.34317000       0.18985000
C       -1.22631000      -0.43775000      -0.06721000
C       -1.02530000       1.04990000       0.01182000
H        0.67507000       2.32438000      -0.40178000
H        0.57343000       1.72750000       1.25174000
H        2.37090000       0.51287000       0.15833000
H        1.33069000       0.03444000      -1.19666000
H       -2.22936000      -0.78064000      -0.37510000
H       -1.40632000       1.47150000      -0.92508000
H       -1.65372000       1.44629000       0.81531000
16
Properties=species:S:1:pos:R:3 energy=-1596.25 pbc="F F F"
C        0.98387000      -0.00678000      -0.01673000
C        2.52000000       0.00000000       0.00000000
C        3.01473000      -0.72362000       1.26199000
C        3.04283000      -0.73661000      -1.24250000
C        3.00202000       1.36117000       0.00000000
C        3.39930000       2.48307000       0.00000000
H        0.59156000       0.50110000      -0.90611000
H        0.57241000       0.50815000       0.85987000
H        0.59109000      -1.03000000      -0.01682000
H        2.66152000      -0.22504000       2.17275000
H        4.11034000      -0.74449000       1.30688000
H        2.66014000      -1.76022000       1.29059000
H        2.70427000      -0.25220000      -2.16638000
H        2.69464000      -1.77565000      -1.26410000
H        4.13925000      -0.75195000      -1.26621000
H        3.75503000       3.48761000       0.00000000
15
Properties=species:S:1:pos:R:3 energy=-1410.52 pbc="F F F"
C        0.94107000      -0.06306000      -0.05804000
C        2.46103000       0.00673000       0.01434000
C        3.10555000      -0.72783000      -1.15418000
C        2.89161000       1.45288000      -0.01241000
N        3.54904000       1.96562000       0.97629000
O        3.81720000       3.30910000       0.69073000
H        0.48756000       0.47659000       0.78061000
H        0.59585000      -1.10138000      -0.01996000
H        0.56255000       0.38911000      -0.98166000
H        2.79808000      -0.44582000       0.95437000
H        2.80055000      -0.29825000      -2.11503000
H        2.82786000      -1.78689000      -1.15029000
H        4.19774000      -0.66290000      -1.09830000
H        2.62302000       2.04780000      -0.90461000
H        4.30653000       3.59690000       1.48421000
15
Properties=species:S:1:pos:R:3 energy=-1464.5 pbc="F F F"
C        1.62828000      -0.93440000      -0.27863000
C        3.12173000      -0.65521000      -0.31277000
C        3.43121000       0.79667000       0.04176000
C        4.91716000       1.08387000       0.00867000
N        5.24202000       2.37737000       0.29843000
O        5.78625000       0.26182000      -0.24969000
H        1.43357000      -1.98291000      -0.52454000
H        1.09604000      -0.31098000      -1.00423000
H        1.21410000      -0.73601000       0.71502000
H        3.50998000      -0.88679000      -1.31190000
H        3.63128000      -1.32760000       0.38819000
H        3.06003000       1.02449000       1.04758000
H        2.93519000       1.46899000      -0.66795000
H        4.55924000       3.07764000       0.54863000
H        6.22264000       2.62516000       0.29874000
17
Properties=species:S:1:pos:R:3 energy=-1571.53 pbc="F F F"
C        1.31314000       0.00934000       1.10189000
C        2.75917000       0.00794000       0.62489000
C        3.23263000       1.37023000       0.10064000
N        3.20415000       2.42309000       1.13584000
C        4.66702000       1.27476000      -0.45632000
O        5.10492000       2.57221000      -0.85787000
H        1.00326000      -1.00804000       1.36228000
H        0.64132000       0.37805000       0.32019000
H        1.18423000       0.63193000       1.99248000
H        2.85620000      -0.73451000      -0.17646000
H        3.40530000      -0.32942000       1.44494000
H        2.57372000       1.70467000      -0.71026000
H        3.69791000       2.09345000       1.96667000
H        2.23871000       2.57615000       1.43351000
H        4.70928000       0.61283000      -1.32573000
H        5.36522000       0.90162000       0.30047000
H        4.68337000       3.17802000      -0.21172000
17
Properties=species:S:1:pos:R:3 energy=-1574.89 pbc="F F F"
C        0.91217000       0.01342000       0.00995000
C        2.43892000       0.00508000       0.05968000
C        2.92328000      -0.82917000       1.24706000
O        2.91518000      -0.62224000      -1.13798000
C        2.98700000       1.45302000       0.09522000
N        4.44537000       1.48140000      -0.10274000
H        0.55312000       0.55303000      -0.87410000
H        0.48247000       0.48257000       0.90134000
H        0.51734000      -1.00592000      -0.07152000
H        2.62826000      -0.37953000       2.20105000
H        4.01232000      -0.94863000       1.23832000
H        2.50994000      -1.84381000       1.20180000
H        3.80543000      -0.23580000      -1.28116000
H        2.72671000       1.94997000       1.03642000
H        2.54295000       2.03004000      -0.72406000
H        4.90592000       1.09384000       0.72117000
H        4.74937000       2.45472000      -0.15218000
13
Properties=species:S:1:pos:R:3 energy=-1306.83 pbc="F F F"
C        0.99108000      -0.02765000      -0.03169000
C        2.52000000       0.00000000       0.00000000
C        3.03547000      -0.75057000       1.22753000
O        2.98875000      -0.71472000      -1.15558000
C        3.00202000       1.36117000       0.00000000
N        3.38623000       2.44616000       0.00000000
H        0.60762000       0.46813000      -0.93191000
H        0.55571000       0.47243000       0.84072000
H        0.61839000      -1.05811000      -0.06347000
H        2.70395000      -0.28399000       2.16102000
H        4.13244000      -0.78257000       1.23548000
H        2.69635000      -1.79338000       1.22081000
H        2.78537000      -0.17478000      -1.94033000
16
Properties=species:S:1:pos:R:3 energy=-1602.41 pbc="F F F"
C        1.00000000       0.00000000       0.00000000
C        2.44400000       0.00000000       0.00000000
C        3.63416000       0.00000000       0.00000000
C        5.07816000       0.00000000       0.00000000
C        5.61780000      -0.75789000      -1.21253000
C        5.61701000       1.42876000       0.01766000
H        0.60601000       1.02088000       0.01165000
H        0.60593000      -0.52054000       0.87824000
H        0.60601000      -0.50030000      -0.88996000
H        5.43700000      -0.50803000       0.90367000
H        5.29718000      -0.29329000      -2.15180000
H        5.26154000      -1.79382000      -1.21716000
H        6.71240000      -0.77981000      -1.20188000
H        5.29846000       1.99077000      -0.86856000
H        6.71246000       1.43261000       0.04432000
H        5.25914000       1.97305000       0.89981000
15
Properties=species:S:1:pos:R:3 energy=-1398.26 pbc="F F F"
C        0.86089000      -0.00323000       0.43277000
C        2.35528000      -0.05696000       0.17240000
C        2.99066000       1.32582000       0.23061000
O        4.38966000       1.18972000      -0.02395000
N        4.97892000       2.46026000       0.03879000
C        6.24110000       2.33882000      -0.19179000
H        0.43170000      -1.00911000       0.38862000
H        0.35421000       0.61525000      -0.31518000
H        0.64959000       0.41297000       1.42312000
H        2.54648000      -0.50817000      -0.80821000
H        2.83761000      -0.71368000       0.90580000
H        2.84498000       1.77231000       1.22145000
H        2.54780000       1.98306000      -0.52700000
H        6.88927000       3.22935000      -0.18754000
H        6.72359000       1.36867000      -0.39890000
15
Properties=species:S:1:pos:R:3 energy=-1449.59 pbc="F F F"
C        2.28630000      -0.01672000       1.74543000
C        2.45647000       0.18819000       0.24836000
N        3.02934000       1.49014000      -0.07003000
C        2.14545000       2.63690000      -0.14347000
C        4.40159000       1.64837000      -0.08193000
O        5.22606000       0.76358000       0.10543000
H        1.87043000      -1.00851000       1.94783000
H        1.60967000       0.72990000       2.17299000
H        3.24576000       0.06502000       2.26656000
H        1.49333000       0.09540000      -0.26527000
H        3.11477000      -0.59448000      -0.14571000
H        1.36739000       2.44001000      -0.88623000
H        2.69495000       3.53769000      -0.43074000
H        1.68782000       2.79964000       0.83611000
H        4.71195000       2.68420000      -0.29806000
15
Properties=species:S:1:pos:R:3 energy=-1411.62 pbc="F F F"
C        1.05991000      -0.00218000       0.07239000
N        2.51471000       0.02271000      -0.02993000
C        3.08728000       1.02402000       0.91175000
C        4.18949000      -0.01770000       1.23834000
O        5.38772000       0.03918000       0.42774000
C        3.11579000      -1.05145000       0.80813000
H        0.66273000      -0.85941000      -0.48238000
H        0.63923000       0.90190000      -0.38125000
H        0.69004000      -0.06620000       1.10304000
H        2.46592000       1.29098000       1.77616000
H        3.43713000       1.94306000       0.43202000
H        4.46325000      -0.06654000       2.29693000
H        5.03843000       0.07923000      -0.48261000
H        3.49007000      -1.90829000       0.23982000
H        2.50354000      -1.42014000       1.64108000
17
Properties=species:S:1:pos:R:3 energy=-1564.59 pbc="F F F"
C        1.50643000      -0.41265000       0.62195000
N        2.94387000      -0.33367000       0.38548000
C        3.34510000       1.04392000       0.07918000
C        4.86027000       1.14364000      -0.13932000
C        5.67292000       0.78840000       1.10313000
O        5.53235000      -0.58774000       1.43199000
H        1.23180000      -1.44683000       0.85278000
H        0.93685000      -0.10139000      -0.26028000
H        1.21072000       0.20540000       1.47659000
H        3.17380000      -0.92957000      -0.41391000
H        3.05884000       1.71184000       0.89976000
H        2.83524000       1.38900000      -0.82822000
H        5.10217000       2.17077000      -0.43851000
H        5.14928000       0.48448000      -0.96852000
H        5.36115000       1.38657000       1.96451000
H        6.73482000       0.97925000       0.92367000
H        4.56838000      -0.77468000       1.38916000
17
Properties=species:S:1:pos:R:3 energy=-1557.42 pbc="F F F"
C        1.01608000      -0.67313000       0.53435000
N        2.22427000      -0.10797000      -0.07307000
C        2.89742000      -1.13923000      -0.87037000
C        1.91154000       1.05697000      -0.93472000
C        1.41591000       2.26841000      -0.13070000
O        2.31371000       2.54043000       0.94454000
H        0.55727000       0.03357000       1.23310000
H        1.26319000      -1.56330000       1.12568000
H        0.26905000      -0.95742000      -0.21592000
H        3.16825000      -1.99682000      -0.24294000
H        3.83398000      -0.75359000      -1.29009000
H        2.27103000      -1.49883000      -1.69478000
H        1.18598000       0.80049000      -1.71619000
H        2.83871000       1.36702000      -1.43307000
H        0.41844000       2.09827000       0.28612000
H        1.36713000       3.15662000      -0.76893000
H        2.64864000       1.66088000       1.21634000
17
Properties=species:S:1:pos:R:3 energy=-1552.49 pbc="F F F"
C        1.20903000      -0.18723000       0.84043000
N        2.63621000      -0.03983000       0.60170000
C        2.97409000       1.34679000       0.25270000
C        4.45267000       1.45754000      -0.14540000
O        4.67317000       0.72604000      -1.35688000
C        6.03534000       0.78711000      -1.75717000
H        0.98675000      -1.22744000       1.09910000
H        0.62132000       0.07131000      -0.04684000
H        0.88269000       0.43707000       1.67948000
H        2.91831000      -0.63086000      -0.18402000
H        2.78214000       2.00203000       1.10939000
H        2.35644000       1.67759000      -0.59098000
H        5.09485000       1.06227000       0.65118000
H        4.70425000       2.51133000      -0.31234000
H        6.15122000       0.20799000      -2.67752000
H        6.68211000       0.35343000      -0.98793000
H        6.32924000       1.82238000      -1.95678000
18
Properties=species:S:1:pos:R:3 energy=-1753.91 pbc="F F F"
C        2.68619000      -1.04124000       1.26129000
C        3.25474000      -0.41997000      -0.00457000
C        3.15610000       1.07859000       0.02864000
C        4.21522000       1.90039000      -0.03573000
C        4.11590000       3.39866000      -0.01363000
C        4.85875000       3.98617000       1.17592000
H        2.76469000      -2.13212000       1.21424000
H        1.62890000      -0.78471000       1.38902000
H        3.22951000      -0.70038000       2.14882000
H        2.69900000      -0.78908000      -0.87335000
H        4.29487000      -0.74184000      -0.12876000
H        2.15317000       1.49677000       0.10015000
H        5.21678000       1.48246000      -0.11882000
H        3.06938000       3.72290000       0.01854000
H        4.54498000       3.79297000      -0.94191000
H        4.44023000       3.62482000       2.12166000
H        4.78229000       5.07808000       1.16714000
H        5.92123000       3.72213000       1.15026000
15
Properties=species:S:1:pos:R:3 energy=-1420.3 pbc="F F F"
C        1.37188000      -0.07422000      -0.21825000
O        2.74471000       0.18224000       0.05394000
C        3.17665000       1.49420000       0.01432000
C        2.39963000       2.57106000      -0.19741000
C        4.66266000       1.63398000       0.25716000
N        5.43247000       0.97754000      -0.79778000
H        1.21662000      -1.15629000      -0.17461000
H        1.10055000       0.26411000      -1.22359000
H        0.73046000       0.38826000       0.53875000
H        1.33281000       2.51046000      -0.37045000
H        2.83042000       3.56779000      -0.21528000
H        4.90762000       1.17794000       1.22369000
H        4.96419000       2.68527000       0.31127000
H        5.07830000       0.02374000      -0.88234000
H        6.40003000       0.89390000      -0.49471000
11
Properties=species:S:1:pos:R:3 energy=-1097.08 pbc="F F F"
C        1.40774000      -0.23516000      -0.59617000
O        2.79198000      -0.20495000      -0.26696000
N        3.21939000       1.13208000      -0.27998000
C        4.46928000       1.16446000       0.01685000
C        4.99688000       2.49877000       0.02809000
C        5.44340000       3.61395000       0.03881000
H        1.07290000      -1.27568000      -0.58659000
H        1.24711000       0.17819000      -1.59665000
H        0.83011000       0.32841000       0.14298000
H        5.11218000       0.30095000       0.24554000
H        5.82909000       4.60684000       0.04551000
15
Properties=species:S:1:pos:R:3 energy=-1423.25 pbc="F F F"
N        0.82619000       0.21045000      -0.20682000
C        2.27232000       0.08622000       0.09065000
C        2.61756000       0.06585000       1.57223000
O        1.73027000      -0.82859000       2.23487000
C        3.09853000      -0.77256000      -0.83705000
C        3.25261000       0.72149000      -0.86352000
H        0.64687000       0.07498000      -1.20231000
H        0.50909000       1.15965000      -0.00116000
H        2.48288000       1.06331000       2.00171000
H        3.64550000      -0.25855000       1.75853000
H        0.92471000      -0.82724000       1.67869000
H        2.61183000      -1.25317000      -1.67789000
H        3.90384000      -1.36257000      -0.41286000
H        4.16909000       1.14031000      -0.46238000
H        2.87512000       1.25361000      -1.72894000
11
Properties=species:S:1:pos:R:3 energy=-1152.69 pbc="F F F"
N        0.91349000      -0.04194000       0.10297000
C        2.07207000      -0.01981000       0.05846000
C        3.50722000       0.00792000      -0.00436000
C        4.19789000       1.01575000       0.91751000
O        5.08924000      -0.01234000       1.42251000
C        4.23440000      -1.03489000       0.84799000
H        3.89302000       0.04953000      -1.03094000
H        3.59668000       1.44301000       1.72726000
H        4.74633000       1.81318000       0.40779000
H        4.81024000      -1.77597000       0.28618000
H        3.64976000      -1.53711000       1.62627000
17
Properties=species:S:1:pos:R:3 energy=-1570.8 pbc="F F F"
N        2.23126000      -0.94647000       1.03041000
C        2.20285000      -0.11357000      -0.17013000
C        3.09738000       1.11999000      -0.03579000
C        4.60644000       0.85312000      -0.12205000
C        5.21990000       0.20392000       1.11555000
O        4.94135000      -1.18578000       1.16589000
H        1.62129000      -1.75400000       0.87972000
H        1.80179000      -0.43076000       1.80207000
H        1.17016000       0.20596000      -0.34806000
H        2.51331000      -0.71020000      -1.03456000
H        2.86416000       1.66196000       0.88984000
H        2.83863000       1.80018000      -0.85843000
H        5.10058000       1.82059000      -0.27000000
H        4.81636000       0.24208000      -1.00741000
H        4.86772000       0.67603000       2.03815000
H        6.30858000       0.30992000       1.08068000
H        3.95963000      -1.26758000       1.18938000
15
Properties=species:S:1:pos:R:3 energy=-1423.83 pbc="F F F"
N        2.80794000      -0.72502000       0.97437000
C        2.31476000       0.20211000      -0.03264000
C        2.84346000       1.59208000       0.20994000
C        2.00737000       2.61078000       0.48588000
C        4.34427000       1.73501000       0.10467000
O        4.74735000       3.10021000       0.09750000
H        2.38368000      -1.63852000       0.82241000
H        2.48160000      -0.41533000       1.88991000
H        1.21862000       0.18702000      -0.02325000
H        2.62669000      -0.13871000      -1.02624000
H        0.93345000       2.46575000       0.55209000
H        2.37442000       3.61382000       0.68323000
H        4.70913000       1.27852000      -0.82175000
H        4.83721000       1.24423000       0.94933000
H        4.33100000       3.50166000      -0.68298000
13
Properties=species:S:1:pos:R:3 energy=-1267.5 pbc="F F F"
N        0.93832000       0.00754000       0.12692000
C        2.40478000      -0.00251000      -0.03124000
C        2.97739000       1.43282000       0.00000000
O        2.49897000       2.08691000       1.17736000
C        4.42139000       1.43282000       0.00000000
C        5.61155000       1.43282000       0.00000000
H        0.60712000      -0.95916000       0.15164000
H        0.51377000       0.42055000      -0.70608000
H        2.67742000      -0.51050000      -0.96316000
H        2.81882000      -0.58561000       0.80075000
H        2.59574000       1.99631000      -0.85900000
H        1.61526000       1.69367000       1.32703000
H        6.67697000       1.44308000       0.01179000
18
Properties=species:S:1:pos:R:3 energy=-1769.38 pbc="F F F"
C        0.99338000       0.01222000      -0.02085000
C        2.51124000       0.00492000       0.04605000
C        3.07792000       1.12606000       0.91223000
C        4.49690000       0.65423000       1.18155000
C        4.35362000      -0.84580000       1.41117000
C        3.08212000      -1.27055000       0.67358000
H        0.63030000      -0.81632000      -0.63726000
H        0.63085000       0.94722000      -0.45979000
H        0.54837000      -0.08728000       0.97483000
H        2.91072000       0.10605000      -0.97230000
H        2.52332000       1.21855000       1.85355000
H        3.05617000       2.09472000       0.40403000
H        5.12788000       0.83815000       0.30372000
H        4.95123000       1.16337000       2.03648000
H        5.23409000      -1.39141000       1.05740000
H        4.24560000      -1.05604000       2.48177000
H        3.29911000      -2.02035000      -0.09482000
H        2.37899000      -1.72482000       1.38118000
18
Properties=species:S:1:pos:R:3 energy=-1754.03 pbc="F F F"
C        0.91818000       0.06399000      -0.02382000
C        2.41927000      -0.16511000       0.06426000
C        3.19352000       1.14453000      -0.10061000
C        4.68962000       0.95229000       0.00639000
C        5.37319000       0.29175000      -1.15770000
C        5.38010000       1.38246000       1.07534000
H        0.38224000      -0.88186000       0.10567000
H        0.64172000       0.47972000      -0.99874000
H        0.57888000       0.75558000       0.75392000
H        2.71134000      -0.88275000      -0.71023000
H        2.65603000      -0.62060000       1.03269000
H        2.85138000       1.86061000       0.65896000
H        2.96057000       1.60096000      -1.07119000
H        5.01640000      -0.73440000      -1.28522000
H        6.45947000       0.24925000      -1.02468000
H        5.17463000       0.84772000      -2.07957000
H        4.88820000       1.87066000       1.91142000
H        6.45621000       1.25623000       1.14566000
18
Properties=species:S:1:pos:R:3 energy=-1751.01 pbc="F F F"
C        0.91395000      -0.02171000       0.12155000
C        2.43162000      -0.00576000      -0.02735000
C        2.84949000       0.02164000      -1.49816000
C        3.14467000       1.05951000       0.85855000
C        4.19840000      -0.00734000       1.21069000
C        3.16407000      -1.08330000       0.82475000
H        0.61176000      -0.04151000       1.17444000
H        0.48374000      -0.90419000      -0.36347000
H        0.46732000       0.86818000      -0.33468000
H        3.93802000       0.03444000      -1.61505000
H        2.45277000       0.91173000      -1.99803000
H        2.47047000      -0.85989000      -2.02536000
H        2.56293000       1.39145000       1.72734000
H        3.52746000       1.94348000       0.34083000
H        5.08105000       0.01069000       0.56143000
H        4.52818000      -0.02092000       2.25251000
H        3.56470000      -1.94337000       0.28027000
H        2.58998000      -1.45326000       1.68277000
22
Properties=species:S:1:pos:R:3 energy=-2060.31 pbc="F F F"
C        1.23751000      -0.71608000       1.65085000
C        2.72629000      -0.39942000       1.63867000
C        3.06737000       1.03378000       1.17214000
C        2.34500000       2.13532000       1.98035000
C        2.69075000       2.18220000       3.46207000
C        4.60322000       1.19596000       1.15924000
N        5.02568000       2.50453000       0.67171000
H        1.08361000      -1.78024000       1.85590000
H        0.77753000      -0.48688000       0.68485000
H        0.71435000      -0.15462000       2.42967000
H        3.21771000      -1.11323000       0.96482000
H        3.14040000      -0.58611000       2.63694000
H        2.71738000       1.12699000       0.13387000
H        1.26047000       2.01389000       1.87593000
H        2.56673000       3.11585000       1.54089000
H        2.45031000       1.24062000       3.96304000
H        2.11436000       2.97395000       3.95219000
H        3.75026000       2.40082000       3.62023000
H        5.04588000       0.42837000       0.51417000
H        5.01424000       1.04094000       2.16367000
H        4.69762000       2.63643000      -0.28466000
H        6.04291000       2.53975000       0.63475000
16
Properties=species:S:1:pos:R:3 energy=-1658.95 pbc="F F F"
C        1.29624000      -0.34101000      -0.45742000
C        2.78818000      -0.43381000      -0.17635000
C        3.42053000       0.95515000      -0.05170000
C        4.90237000       0.88089000       0.22790000
C        5.40062000       1.08705000       1.45936000
C        5.79279000       0.62138000      -0.86136000
N        6.51138000       0.41319000      -1.74747000
H        0.86133000      -1.34276000      -0.52900000
H        1.10733000       0.17994000      -1.40132000
H        0.77844000       0.19761000       0.34274000
H        3.26798000      -1.00045000      -0.98314000
H        2.94277000      -0.99955000       0.75058000
H        2.91366000       1.51269000       0.74689000
H        3.25145000       1.52832000      -0.97274000
H        4.75275000       1.29621000       2.30557000
H        6.46953000       1.04635000       1.65703000
18
Properties=species:S:1:pos:R:3 energy=-1802.15 pbc="F F F"
C        1.12610000      -0.26834000       0.23384000
C        2.62527000      -0.18438000      -0.00951000
C        3.15766000       1.22641000       0.26554000
C        4.66403000       1.36398000      -0.01698000
C        5.08599000       2.83127000       0.06461000
C        5.46249000       0.56717000       0.93574000
N        6.09076000      -0.05910000       1.68238000
H        0.76556000      -1.28168000       0.03115000
H        0.58283000       0.42229000      -0.41895000
H        0.88345000      -0.02284000       1.27269000
H        2.83630000      -0.46476000      -1.04802000
H        3.12776000      -0.91533000       0.63353000
H        2.94231000       1.49998000       1.30696000
H        2.60863000       1.93519000      -0.36793000
H        4.86908000       1.00812000      -1.03441000
H        4.90231000       3.24676000       1.06224000
H        4.53368000       3.43678000      -0.66180000
H        6.15494000       2.94442000      -0.14923000
22
Properties=species:S:1:pos:R:3 energy=-2055.09 pbc="F F F"
C        2.81774000      -1.26732000       1.19532000
C        2.14109000       0.08957000       1.32127000
C        2.88135000       1.22133000       0.58021000
C        2.06747000       2.51756000       0.67515000
C        4.33763000       1.44526000       1.04358000
N        4.43938000       1.80145000       2.46036000
C        5.82538000       2.03038000       2.84598000
H        2.19675000      -2.04047000       1.66012000
H        3.79046000      -1.28187000       1.69672000
H        2.96381000      -1.53783000       0.14453000
H        2.02007000       0.33565000       2.38227000
H        1.12765000       0.00203000       0.90982000
H        2.92484000       0.94783000      -0.48273000
H        1.93839000       2.84072000       1.71381000
H        1.07071000       2.38022000       0.24168000
H        2.55872000       3.32710000       0.12437000
H        4.77156000       2.24961000       0.43564000
H        4.92805000       0.54410000       0.83934000
H        4.05632000       1.04876000       3.03081000
H        6.26221000       2.85986000       2.28050000
H        6.43636000       1.13397000       2.69821000
H        5.86886000       2.29630000       3.90644000
22
Properties=species:S:1:pos:R:3 energy=-2055.72 pbc="F F F"
C        2.31652000      -0.87605000      -1.32428000
C        2.01765000      -0.04698000      -0.07942000
C        2.73725000       1.32683000      -0.00508000
C        2.27835000       2.22398000      -1.17419000
C        2.33559000       2.03074000       1.30753000
N        4.20472000       1.21799000      -0.12393000
C        4.87239000       0.43870000       0.90883000
H        1.79714000      -1.83823000      -1.26163000
H        3.38574000      -1.08290000      -1.42710000
H        1.96938000      -0.37658000      -2.23343000
H        2.26406000      -0.64914000       0.80394000
H        0.93232000       0.11289000      -0.03311000
H        2.60713000       1.83433000      -2.14389000
H        2.68128000       3.23977000      -1.08028000
H        1.18587000       2.30615000      -1.20229000
H        2.55751000       1.41605000       2.18650000
H        1.25961000       2.24046000       1.32438000
H        2.85753000       2.98759000       1.42476000
H        4.61332000       2.15275000      -0.14421000
H        4.52328000      -0.59668000       0.93847000
H        4.76436000       0.88720000       1.90024000
H        5.94387000       0.40277000       0.68630000
17
Properties=species:S:1:pos:R:3 energy=-1640.96 pbc="F F F"
C        1.11024000       0.11905000      -0.93266000
C        2.30780000       0.08782000      -0.04016000
C        2.71495000      -0.99560000       0.63727000
C        3.13252000       1.33376000       0.07822000
C        2.39631000       2.61978000       0.39813000
N        4.42500000       1.25878000      -0.09974000
N        5.11428000       2.41799000      -0.00491000
H        1.36457000       0.56374000      -1.90047000
H        0.30165000       0.70279000      -0.48311000
H        0.72557000      -0.88815000      -1.12553000
H        2.17603000      -1.93518000       0.58182000
H        3.60814000      -0.97245000       1.25687000
H        1.35823000       2.42668000       0.68066000
H        2.40759000       3.27328000      -0.47918000
H        2.87767000       3.12855000       1.23887000
H        6.11543000       2.20823000       0.01128000
H        4.98210000       2.98132000      -0.84805000
19
Properties=species:S:1:pos:R:3 energy=-1924.09 pbc="F F F"
C        0.96779000       0.04529000       0.00104000
C        2.48978000      -0.00440000       0.02969000
C        3.08190000       1.11773000       0.88470000
C        4.49605000       0.63578000       1.17706000
C        4.33701000      -0.85708000       1.44256000
C        3.10998000      -1.23668000       0.65251000
C        2.64327000      -2.48973000       0.57730000
H        0.55990000      -0.72586000      -0.66087000
H        0.62246000       1.01606000      -0.37014000
H        0.54079000      -0.10570000       0.99867000
H        2.87282000       0.09234000      -0.99492000
H        2.52498000       1.24134000       1.82228000
H        3.07993000       2.07893000       0.36128000
H        5.13915000       0.79930000       0.30260000
H        4.94534000       1.15976000       2.02641000
H        5.22489000      -1.40890000       1.12230000
H        4.16547000      -1.03529000       2.50945000
H        1.74850000      -2.73533000       0.01443000
H        3.15065000      -3.30798000       1.07958000
17
Properties=species:S:1:pos:R:3 energy=-1672.11 pbc="F F F"
C        3.30064000      -0.94158000       1.94271000
C        3.36162000      -0.79717000       0.44695000
C        3.19181000      -1.85283000      -0.36765000
C        3.57687000       0.59938000      -0.08761000
C        5.02046000       1.03655000       0.13534000
N        5.97962000       0.67228000      -0.76096000
N        5.37765000       1.72324000       1.17261000
H        4.26381000      -0.68898000       2.39557000
H        3.04940000      -1.96332000       2.24603000
H        2.53495000      -0.27761000       2.35663000
H        3.02033000      -2.85111000       0.02591000
H        3.21340000      -1.75048000      -1.44864000
H        2.89519000       1.30343000       0.40213000
H        3.36853000       0.64730000      -1.16335000
H        5.84172000      -0.22163000      -1.21693000
H        6.91224000       0.79283000      -0.37971000
H        4.56470000       1.91733000       1.76654000
19
Properties=species:S:1:pos:R:3 energy=-1781.77 pbc="F F F"
C        0.96849000      -0.07083000      -0.05894000
C        2.49860000      -0.02403000       0.02118000
C        2.97182000      -0.70251000       1.31204000
C        3.10679000      -0.73976000      -1.19071000
C        2.91769000       1.43903000      -0.04646000
N        3.52362000       2.03232000       0.93435000
N        3.79734000       3.33072000       0.67734000
H        0.60199000       0.40533000      -0.97592000
H        0.51344000       0.46081000       0.78487000
H        0.60058000      -1.10266000      -0.04619000
H        2.55172000      -0.21278000       2.19811000
H        4.06350000      -0.66651000       1.40358000
H        2.66933000      -1.75532000       1.33948000
H        2.78050000      -0.28068000      -2.13127000
H        2.81754000      -1.79614000      -1.21547000
H        4.20165000      -0.68926000      -1.16932000
H        2.66802000       1.97830000      -0.98128000
H        4.44074000       3.68272000       1.39157000
H        2.95670000       3.90386000       0.78777000
19
Properties=species:S:1:pos:R:3 energy=-1811.94 pbc="F F F"
C        0.96284000      -0.06695000       0.07828000
C        2.49469000      -0.00609000      -0.00869000
C        3.11744000      -0.69973000       1.21519000
C        2.95131000      -0.76146000      -1.26881000
C        2.92768000       1.47344000      -0.03220000
N        3.50026000       2.03299000      -1.13171000
N        2.74145000       2.26440000       0.97778000
H        0.50119000       0.45024000      -0.77066000
H        0.59002000       0.41181000       0.99041000
H        0.60580000      -1.10261000       0.07783000
H        2.75258000      -0.27685000       2.15724000
H        4.20836000      -0.59541000       1.21156000
H        2.88046000      -1.76965000       1.22784000
H        2.48240000      -0.35792000      -2.17284000
H        2.68505000      -1.82323000      -1.21240000
H        4.03757000      -0.69794000      -1.39943000
H        3.19045000       1.71026000      -2.03822000
H        3.52634000       3.04602000      -1.05718000
H        2.29880000       1.76906000       1.75644000
19
Properties=species:S:1:pos:R:3 energy=-1784.87 pbc="F F F"
C        0.95158000      -0.11088000      -0.19193000
C        2.45686000       0.05867000      -0.02077000
C        3.24320000      -0.76795000      -1.03192000
C        2.85119000       1.53377000      -0.09064000
C        2.66173000       2.28189000      -1.39518000
N        3.34623000       2.06706000       0.99124000
N        3.70891000       3.36507000       0.90533000
H        0.40599000       0.52122000       0.51703000
H        0.65799000      -1.15088000      -0.01444000
H        0.62102000       0.16204000      -1.19928000
H        2.72068000      -0.30342000       0.98186000
H        2.97415000      -0.51637000      -2.06298000
H        3.05213000      -1.83666000      -0.88840000
H        4.31948000      -0.59762000      -0.92048000
H        2.11307000       1.68059000      -2.12280000
H        3.64083000       2.52686000      -1.81701000
H        2.09649000       3.20203000      -1.22158000
H        3.90064000       3.72110000       1.84538000
H        4.59893000       3.45683000       0.40956000
15
Properties=species:S:1:pos:R:3 energy=-1484.65 pbc="F F F"
C        1.07367000      -0.01098000       0.02951000
C        2.58515000      -0.01012000       0.07853000
C        3.27497000      -1.35624000      -0.08311000
C        3.40761000      -1.71478000      -1.50359000
C        3.51419000      -2.01408000      -2.66283000
N        3.17762000       1.14125000       0.23138000
N        4.52685000       1.12883000       0.23290000
H        0.68051000       0.99625000       0.19283000
H        0.68561000      -0.67435000       0.80718000
H        0.74088000      -0.36849000      -0.94851000
H        2.67265000      -2.11148000       0.43452000
H        4.25385000      -1.35402000       0.40526000
H        3.60664000      -2.28112000      -3.69028000
H        4.88839000       0.95708000      -0.70974000
H        4.87153000       2.06091000       0.47772000
15
Properties=species:S:1:pos:R:3 energy=-1482.9 pbc="F F F"
C        1.00000000       0.00000000       0.00000000
C        2.44400000       0.00000000       0.00000000
C        3.63416000       0.00000000       0.00000000
C        5.07816000       0.00000000       0.00000000
C        5.61953000       1.40257000      -0.04398000
N        6.41455000       1.84264000       0.88282000
N        6.80629000       3.11917000       0.66306000
H        0.60601000       1.02089000       0.01165000
H        0.60592000      -0.52048000       0.87827000
H        0.60592000      -0.50031000      -0.88992000
H        5.45732000      -0.52132000      -0.88541000
H        5.47020000      -0.51413000       0.88371000
H        5.32242000       2.02517000      -0.90951000
H        6.87158000       3.60005000       1.56605000
H        7.77822000       3.12299000       0.33778000
19
Properties=species:S:1:pos:R:3 energy=-1781.04 pbc="F F F"
C        3.07868000      -0.91516000      -0.77827000
C        2.66930000       0.01054000       0.36014000
C        3.06557000       1.46973000       0.10539000
C        2.49011000       2.38402000       1.18344000
C        4.57105000       1.61298000       0.12013000
N        5.19750000       2.06407000      -0.91953000
N        6.53569000       2.12724000      -0.73954000
H        2.72646000      -1.93265000      -0.58067000
H        4.16662000      -0.95449000      -0.89037000
H        2.64552000      -0.58516000      -1.72787000
H        3.12126000      -0.35208000       1.29156000
H        1.58158000      -0.05572000       0.48424000
H        2.68540000       1.79290000      -0.87145000
H        2.85418000       2.10723000       2.17929000
H        1.39637000       2.33548000       1.19411000
H        2.78103000       3.42520000       1.00547000
H        5.09692000       1.31454000       1.04711000
H        6.98613000       2.28279000      -1.64568000
H        6.78481000       2.95246000      -0.18775000
19
Properties=species:S:1:pos:R:3 energy=-1814.1 pbc="F F F"
C        2.96864000      -0.96633000      -1.01687000
C        2.53289000      -0.07160000       0.13589000
C        3.16240000       1.32676000       0.07131000
C        2.58687000       2.23753000       1.15556000
C        4.68137000       1.27426000       0.20143000
N        5.45081000       1.74909000      -0.81320000
N        5.27905000       0.80481000       1.24763000
H        2.44056000      -1.92436000      -0.97020000
H        4.04252000      -1.17593000      -0.97732000
H        2.74296000      -0.50226000      -1.98283000
H        2.77913000      -0.56684000       1.08190000
H        1.44081000       0.02333000       0.10365000
H        2.92082000       1.77433000      -0.90164000
H        2.73102000       1.81591000       2.15652000
H        1.51257000       2.38658000       1.00540000
H        3.07097000       3.21963000       1.13787000
H        5.07580000       2.50138000      -1.37622000
H        6.41737000       1.88091000      -0.53316000
H        4.59562000       0.47489000       1.93764000
19
Properties=species:S:1:pos:R:3 energy=-1782.84 pbc="F F F"
C        1.47817000      -0.04423000      -1.21973000
C        2.00827000       0.37491000       0.13899000
C        2.93592000       1.56992000       0.00006000
C        2.30376000       2.95205000       0.06641000
C        2.28840000       3.46651000       1.49458000
N        4.20407000       1.32400000      -0.17067000
N        5.01497000       2.39634000      -0.28366000
H        0.81487000      -0.90845000      -1.12023000
H        2.29740000      -0.31649000      -1.89325000
H        0.91609000       0.76710000      -1.69270000
H        2.55850000      -0.45413000       0.59793000
H        1.18076000       0.63486000       0.80728000
H        1.27714000       2.88617000      -0.30973000
H        2.83432000       3.65075000      -0.58738000
H        1.75111000       2.77949000       2.15689000
H        1.79578000       4.44279000       1.54238000
H        3.30398000       3.57809000       1.88810000
H        5.92144000       2.09149000      -0.64788000
H        5.23097000       2.77763000       0.64053000
22
Properties=species:S:1:pos:R:3 energy=-2057.83 pbc="F F F"
C       -0.32108000       0.75269000      -0.45007000
C        1.11453000       0.27528000      -0.59930000
C        2.10666000       1.43262000      -0.48016000
C        3.54761000       0.94250000      -0.64072000
N        4.47124000       2.07085000      -0.51996000
C        5.85759000       1.63522000      -0.67694000
C        6.79339000       2.82392000      -0.52044000
H       -1.01209000      -0.09210000      -0.53304000
H       -0.57641000       1.47807000      -1.22929000
H       -0.47842000       1.22559000       0.52455000
H        1.23002000      -0.21638000      -1.57224000
H        1.32509000      -0.47585000       0.17087000
H        1.98448000       1.91850000       0.49606000
H        1.88410000       2.18606000      -1.24622000
H        3.66169000       0.46912000      -1.62333000
H        3.76636000       0.19005000       0.12680000
H        4.35130000       2.51525000       0.39002000
H        6.00564000       1.19515000      -1.66949000
H        6.11183000       0.87841000       0.07385000
H        6.57809000       3.59946000      -1.26372000
H        7.83221000       2.50603000      -0.65689000
H        6.70620000       3.27013000       0.47627000
18
Properties=species:S:1:pos:R:3 energy=-1779.46 pbc="F F F"
C        1.01487000      -0.41808000      -0.35450000
C        2.45828000      -0.02549000      -0.41989000
C        3.02563000       1.11230000       0.03905000
C        2.25037000       2.17587000       0.79032000
N        1.81359000       3.24548000      -0.10272000
C        4.46301000       1.29447000      -0.17946000
C        5.21766000       2.33784000       0.18998000
H        0.89785000      -1.29016000       0.29526000
H        0.66813000      -0.69179000      -1.35617000
H        0.35852000       0.37417000       0.00877000
H        3.07899000      -0.75916000      -0.93294000
H        2.85197000       2.59199000       1.60607000
H        1.37141000       1.75223000       1.28652000
H        2.62888000       3.61547000      -0.58865000
H        1.43664000       4.00925000       0.45439000
H        4.97143000       0.48783000      -0.70860000
H        4.82850000       3.20086000       0.71630000
H        6.27941000       2.34620000      -0.03838000
18
Properties=species:S:1:pos:R:3 energy=-1761.92 pbc="F F F"
C        0.97826000       0.01637000      -0.00950000
C        2.52000000       0.00000000       0.00000000
C        2.99297000      -0.72111000       1.27509000
C        3.00662000      -0.75583000      -1.27193000
N        4.46005000      -0.93540000      -1.36131000
C        3.00202000       1.36117000       0.00000000
C        3.39930000       2.48307000       0.00000000
H        0.59070000       0.52097000      -0.90211000
H        0.57888000       0.54617000       0.86316000
H        0.57131000      -1.00054000       0.00294000
H        2.59589000      -0.23654000       2.17513000
H        4.08513000      -0.71520000       1.36605000
H        2.66006000      -1.76482000       1.28503000
H        2.67407000      -0.22004000      -2.17048000
H        2.54649000      -1.75075000      -1.30705000
H        4.91185000      -0.02205000      -1.30288000
H        4.69669000      -1.31214000      -2.27794000
H        3.75428000       3.48797000       0.00568000
22
Properties=species:S:1:pos:R:3 energy=-2051.29 pbc="F F F"
C        1.92329000      -1.34801000       0.26042000
C        3.18027000      -0.75659000      -0.38451000
C        2.88147000      -0.35647000      -1.83101000
C        3.68534000       0.43830000       0.45596000
N        4.89388000       1.09533000      -0.07282000
C        5.15220000       2.33559000       0.66342000
C        6.06922000       0.22560000       0.00006000
H        2.13029000      -1.67661000       1.28436000
H        1.56930000      -2.21746000      -0.30352000
H        1.11093000      -0.61428000       0.29672000
H        3.93992000      -1.54709000      -0.39452000
H        2.13417000       0.44302000      -1.87522000
H        2.49493000      -1.21097000      -2.39686000
H        3.78417000      -0.00730000      -2.34216000
H        3.85618000       0.11031000       1.49045000
H        2.87346000       1.17749000       0.49530000
H        4.30466000       3.02419000       0.57009000
H        6.02225000       2.85719000       0.24830000
H        5.33442000       2.15378000       1.72916000
H        5.95596000      -0.65081000      -0.64546000
H        6.26798000      -0.11676000       1.02214000
H        6.96007000       0.75158000      -0.36298000
18
Properties=species:S:1:pos:R:3 energy=-1747.68 pbc="F F F"
C        0.99383000      -0.13253000       0.05188000
C        2.52528000      -0.00468000      -0.00811000
C        2.98454000      -0.72840000      -1.21844000
C        3.35245000      -1.31963000      -2.19707000
N        2.99434000       1.40176000      -0.02997000
C        2.43784000       2.19608000       1.06834000
C        4.46094000       1.47287000       0.03268000
H        0.59413000       0.22027000       1.00804000
H        0.68425000      -1.17951000      -0.05362000
H        0.51216000       0.43306000      -0.75460000
H        2.93273000      -0.51291000       0.87659000
H        3.67822000      -1.83624000      -3.07033000
H        1.35665000       2.32572000       0.95781000
H        2.85411000       3.21052000       1.06363000
H        2.64361000       1.74796000       2.04707000
H        4.92831000       0.99125000      -0.83228000
H        4.85622000       1.01023000       0.94450000
H        4.79590000       2.51654000       0.00687000
19
Properties=species:S:1:pos:R:3 energy=-1917.6 pbc="F F F"
C       -1.72365000       0.84292000       0.55664000
C       -1.15400000      -0.25703000      -0.29811000
C       -0.35158000      -1.38170000       0.28468000
C        1.06852000      -1.33765000      -0.27986000
C        1.77048000       0.02068000      -0.09529000
C        0.86310000       1.16099000       0.37700000
C       -0.48760000       1.09419000      -0.26970000
H       -2.64944000       1.30561000       0.23375000
H       -1.62772000       0.76749000       1.63473000
H       -1.67648000      -0.53868000      -1.20390000
H       -0.31834000      -1.31557000       1.37918000
H       -0.82232000      -2.33967000       0.03719000
H        1.67523000      -2.13243000       0.16890000
H        1.02473000      -1.55602000      -1.35501000
H        2.59747000      -0.08927000       0.61686000
H        2.23377000       0.29965000      -1.05025000
H        0.76194000       1.10769000       1.46845000
H        1.33563000       2.12543000       0.15901000
H       -0.56411000       1.70810000      -1.15914000
20
Properties=species:S:1:pos:R:3 energy=-1917.82 pbc="F F F"
C        1.41545000       0.35364000       0.79594000
C        2.69656000       0.55376000      -0.01892000
C        2.43673000       0.22105000      -1.50153000
C        3.70766000       0.25993000      -2.35233000
N        3.39887000      -0.09345000      -3.73625000
C        3.18748000       1.97066000       0.16202000
C        4.36302000       2.29365000       0.71553000
H        1.57876000       0.59285000       1.85247000
H        1.08083000      -0.68754000       0.73944000
H        0.60192000       0.98853000       0.42811000
H        3.44745000      -0.14907000       0.36584000
H        1.69440000       0.91750000      -1.91547000
H        1.99430000      -0.78199000      -1.56575000
H        4.44975000      -0.44203000      -1.95741000
H        4.15269000       1.25982000      -2.34232000
H        3.03591000      -1.04519000      -3.77545000
H        4.25950000      -0.09206000      -4.28299000
H        2.53373000       2.76956000      -0.18595000
H        5.05203000       1.53798000       1.07931000
H        4.66057000       3.33311000       0.81685000
14
Properties=species:S:1:pos:R:3 energy=-1462.48 pbc="F F F"
C        1.00000000       0.00000000       0.00000000
C        2.44400000       0.00000000       0.00000000
C        3.63416000       0.00000000       0.00000000
C        5.07816000       0.00000000       0.00000000
N        5.57250000      -0.69699000      -1.18125000
C        5.56018000       1.36117000       0.00000000
C        5.95746000       2.48307000       0.00000000
H        0.60603000       1.02089000       0.01165000
H        0.60594000      -0.52053000       0.87824000
H        0.60602000      -0.50030000      -0.88996000
H        5.45074000      -0.52356000       0.88716000
H        5.21913000      -0.20977000      -2.00275000
H        5.15099000      -1.62282000      -1.20239000
H        6.31600000       3.48617000      -0.00344000
18
Properties=species:S:1:pos:R:3 energy=-1755.53 pbc="F F F"
C        1.00000000       0.00000000       0.00000000
C        2.44400000       0.00000000       0.00000000
C        3.63416000       0.00000000       0.00000000
C        5.07816000       0.00000000       0.00000000
N        5.63674000       1.36215000       0.01583000
C        5.39361000       2.02753000       1.29968000
C        7.07553000       1.31717000      -0.25333000
H        0.60612000       1.02090000       0.01413000
H        0.60597000      -0.52253000       0.87707000
H        0.60589000      -0.49817000      -0.89110000
H        5.40900000      -0.51299000      -0.91249000
H        5.46338000      -0.58820000       0.84274000
H        4.32252000       2.14988000       1.48964000
H        5.81808000       3.03804000       1.29180000
H        5.83427000       1.47854000       2.13950000
H        7.27017000       0.87501000      -1.23599000
H        7.61960000       0.73805000       0.50092000
H        7.49403000       2.32935000      -0.27971000
22
Properties=species:S:1:pos:R:3 energy=-2063.28 pbc="F F F"
C        2.97270000      -0.89544000      -1.15246000
C        2.54096000      -0.03028000       0.02541000
C        3.03909000       1.43744000      -0.01240000
C        2.45555000       2.17946000      -1.22808000
N        2.52524000       2.12203000       1.18770000
C        4.58288000       1.56845000      -0.04426000
C        5.33226000       0.89356000       1.10043000
H        2.59526000      -1.91523000      -1.02095000
H        4.06161000      -0.95659000      -1.23543000
H        2.57120000      -0.51812000      -2.09764000
H        2.87590000      -0.51835000       0.94938000
H        1.44308000      -0.04250000       0.06462000
H        2.84278000       1.77595000      -2.16935000
H        2.71543000       3.24579000      -1.20622000
H        1.36237000       2.10654000      -1.25762000
H        2.81125000       1.61813000       2.02557000
H        1.50553000       2.10260000       1.18573000
H        4.85659000       2.63288000      -0.04346000
H        4.96820000       1.16776000      -0.99021000
H        5.04172000       1.30354000       2.07194000
H        6.40865000       1.05730000       0.98410000
H        5.16448000      -0.18655000       1.11217000
18
Properties=species:S:1:pos:R:3 energy=-1761.44 pbc="F F F"
C        1.00795000      -0.21960000       0.02991000
C        2.52247000      -0.03348000       0.02972000
C        3.02739000       1.43282000       0.00000000
C        2.51696000       2.18031000      -1.24086000
N        2.57733000       2.16313000       1.18735000
C        4.47139000       1.43282000       0.00000000
C        5.66155000       1.43282000       0.00000000
H        0.76785000      -1.28698000       0.06143000
H        0.55079000       0.19173000      -0.87468000
H        0.54142000       0.24760000       0.90216000
H        2.92809000      -0.57426000      -0.83583000
H        2.92631000      -0.54484000       0.91421000
H        2.79624000       1.65342000      -2.16126000
H        2.94305000       3.18979000      -1.30615000
H        1.42692000       2.28983000      -1.23762000
H        2.87860000       1.66148000       2.02099000
H        1.56161000       2.19235000       1.21622000
H        6.72679000       1.44216000       0.00374000
20
Properties=species:S:1:pos:R:3 energy=-1920.21 pbc="F F F"
C        1.39267000       0.11997000       1.29393000
C        2.07134000       0.51967000      -0.00960000
C        2.91857000       1.77876000       0.11042000
C        2.17695000       3.05035000       0.44676000
N        1.20119000       3.37234000      -0.58554000
C        4.25194000       1.69706000      -0.08632000
C        5.27383000       2.78865000      -0.04141000
H        0.88150000      -0.84117000       1.17122000
H        0.63941000       0.85466000       1.59788000
H        2.12013000       0.01558000       2.10641000
H        1.31431000       0.65515000      -0.79007000
H        2.68821000      -0.32509000      -0.34000000
H        2.84556000       3.90545000       0.56920000
H        1.66357000       2.93404000       1.40734000
H        1.69959000       3.53003000      -1.46017000
H        0.75253000       4.25510000      -0.35155000
H        4.67848000       0.72108000      -0.31860000
H        4.85414000       3.78519000       0.10321000
H        5.83337000       2.80216000      -0.98238000
H        5.98203000       2.59726000       0.77084000
22
Properties=species:S:1:pos:R:3 energy=-2063.64 pbc="F F F"
C        1.25201000      -0.14394000      -0.55043000
C        2.75798000      -0.04582000      -0.35239000
C        3.24309000       1.40137000      -0.48461000
C        4.75162000       1.57981000      -0.21948000
N        5.55911000       0.83087000      -1.18427000
C        5.11858000       3.07420000      -0.27912000
C        6.58200000       3.35473000       0.04452000
H        0.92641000      -1.18543000      -0.46750000
H        0.96238000       0.22443000      -1.53968000
H        0.71768000       0.44075000       0.20469000
H        3.24605000      -0.68402000      -1.09706000
H        3.01797000      -0.43743000       0.63704000
H        2.68565000       2.02285000       0.22838000
H        2.99389000       1.77707000      -1.48517000
H        4.98281000       1.20379000       0.78482000
H        5.28828000       1.08630000      -2.13317000
H        5.37622000      -0.16718000      -1.09314000
H        4.49937000       3.62433000       0.44053000
H        4.88809000       3.48400000      -1.27001000
H        6.85294000       2.94981000       1.02365000
H        6.76120000       4.43473000       0.06203000
H        7.24967000       2.92118000      -0.70714000
18
Properties=species:S:1:pos:R:3 energy=-1760.89 pbc="F F F"
C        1.16380000      -0.30751000      -0.02824000
C        2.66081000      -0.25525000      -0.29288000
C        3.27935000       1.03908000       0.24850000
C        4.78966000       1.13453000      -0.02473000
N        5.28156000       2.46061000       0.34809000
C        5.54452000       0.13054000       0.74110000
C        6.16227000      -0.68835000       1.36778000
H        0.73916000      -1.23046000      -0.43540000
H        0.65138000       0.53830000      -0.49750000
H        0.95552000      -0.28311000       1.04621000
H        2.83721000      -0.32596000      -1.37249000
H        3.13041000      -1.12932000       0.17145000
H        3.08115000       1.11277000       1.32655000
H        2.76989000       1.88864000      -0.22560000
H        4.97683000       0.99202000      -1.09498000
H        5.13471000       2.59842000       1.34699000
H        4.72688000       3.17187000      -0.12232000
H        6.71618000      -1.41017000       1.92320000
22
Properties=species:S:1:pos:R:3 energy=-2050.74 pbc="F F F"
C        2.25204000      -0.38891000      -1.93053000
C        3.29780000       0.40048000      -1.15856000
C        2.67471000       1.58737000      -0.41972000
C        3.74331000       2.38399000       0.34058000
N        3.18577000       3.48007000       1.15118000
C        4.22911000       4.03902000       2.01652000
C        2.61454000       4.54399000       0.32291000
H        2.72205000      -1.22475000      -2.45798000
H        1.75196000       0.24219000      -2.67166000
H        1.49215000      -0.79640000      -1.25623000
H        4.06366000       0.75901000      -1.85681000
H        3.79556000      -0.26492000      -0.44435000
H        1.91509000       1.22336000       0.28298000
H        2.16563000       2.22608000      -1.14965000
H        4.49615000       2.76586000      -0.36314000
H        4.26170000       1.68175000       1.00815000
H        4.62371000       3.27144000       2.69078000
H        3.81995000       4.83137000       2.65342000
H        5.06366000       4.45588000       1.44011000
H        1.74486000       4.18825000      -0.23791000
H        3.34412000       4.95333000      -0.38546000
H        2.24953000       5.36590000       0.94980000
19
Properties=species:S:1:pos:R:3 energy=-1791.51 pbc="F F F"
C        0.69636000       0.57357000      -1.00920000
C        2.01389000       0.65119000      -0.30819000
C        3.07473000       1.32292000      -0.78646000
C        4.40558000       1.42579000      -0.08854000
N        5.42334000       0.76904000      -0.92271000
C        4.78549000       2.90983000       0.18322000
N        5.24487000       3.63096000      -1.01933000
H        0.42735000      -0.47334000      -1.18013000
H        0.71195000       1.08296000      -1.97808000
H       -0.08154000       1.03350000      -0.39280000
H        2.08737000       0.12476000       0.64067000
H        2.98683000       1.85846000      -1.73060000
H        4.36689000       0.90537000       0.87610000
H        5.42089000       1.23951000      -1.82760000
H        5.11394000      -0.18532000      -1.10614000
H        5.60088000       2.93646000       0.91797000
H        3.93621000       3.44593000       0.62112000
H        6.09822000       3.16968000      -1.33518000
H        5.52501000       4.57125000      -0.74449000
17
Properties=species:S:1:pos:R:3 energy=-1668.82 pbc="F F F"
C        0.97534000      -0.02175000      -0.11674000
C        2.47344000      -0.14832000      -0.02027000
C        2.97559000      -1.56511000      -0.00366000
C        3.25055000       0.94741000       0.04240000
N        4.61708000       1.03323000       0.13092000
C        5.42610000       2.13258000       0.19247000
N        5.12471000       3.38144000       0.18348000
H        0.64554000       1.02244000      -0.13067000
H        0.49821000      -0.50942000       0.73961000
H        0.61335000      -0.49663000      -1.03451000
H        2.53989000      -2.10884000       0.84108000
H        4.06209000      -1.63784000       0.08745000
H        2.68827000      -2.07660000      -0.92827000
H        2.77244000       1.92432000       0.02276000
H        5.09542000       0.13968000       0.15118000
H        6.49138000       1.85184000       0.25888000
H        4.11208000       3.49295000       0.11862000
19
Properties=species:S:1:pos:R:3 energy=-1805.7 pbc="F F F"
C        1.04968000      -0.30761000      -0.12952000
C        2.57595000      -0.44114000       0.00230000
C        2.89020000      -1.40905000       1.15070000
C        3.15045000      -0.96533000      -1.31935000
N        3.12268000       0.88351000       0.29145000
C        4.43218000       1.17496000       0.48507000
N        4.91611000       2.35996000       0.57757000
H        0.77993000       0.38539000      -0.93521000
H        0.60486000       0.07939000       0.79479000
H        0.58256000      -1.27421000      -0.34902000
H        2.52529000      -1.01880000       2.10764000
H        3.96666000      -1.58033000       1.25700000
H        2.41953000      -2.38469000       0.98388000
H        2.95178000      -0.26789000      -2.14141000
H        2.71100000      -1.93338000      -1.58533000
H        4.23622000      -1.10077000      -1.26234000
H        2.50697000       1.66543000       0.10412000
H        5.09926000       0.30073000       0.56281000
H        4.16568000       3.04726000       0.49432000
13
Properties=species:S:1:pos:R:3 energy=-1402.64 pbc="F F F"
C        0.98259000       0.00223000      -0.00537000
C        2.52000000       0.00000000       0.00000000
C        3.01501000      -0.71746000       1.26644000
C        3.00065000      -0.73715000      -1.18525000
N        3.36460000      -1.34046000      -2.10824000
C        3.00202000       1.36117000       0.00000000
N        3.38623000       2.44616000       0.00000000
H        0.58487000       0.50181000      -0.89803000
H        0.57923000       0.52750000       0.86900000
H        0.58011000      -1.01808000       0.00296000
H        2.66783000      -0.21154000       2.17565000
H        4.11135000      -0.74748000       1.30840000
H        2.65945000      -1.75437000       1.30474000
21
Properties=species:S:1:pos:R:3 energy=-1931.62 pbc="F F F"
C        0.99181000      -0.03930000       0.12244000
C        2.53528000      -0.06875000       0.06309000
C        3.06063000      -0.68359000       1.37662000
C        3.00726000      -0.89265000      -1.16551000
N        2.52700000      -2.27753000      -1.17503000
C        3.02528000       1.40072000      -0.07942000
N        4.47844000       1.54760000      -0.12999000
H        0.56991000       0.36757000      -0.80290000
H        0.64243000       0.58654000       0.95137000
H        0.57173000      -1.03947000       0.27090000
H        2.83625000      -0.03427000       2.23038000
H        4.14444000      -0.83532000       1.34558000
H        2.59881000      -1.65557000       1.57963000
H        4.10175000      -0.91464000      -1.21362000
H        2.65746000      -0.41007000      -2.08551000
H        2.94160000      -2.78319000      -0.39317000
H        2.87308000      -2.73802000      -2.01669000
H        2.64711000       2.00326000       0.75567000
H        2.60798000       1.83713000      -0.99513000
H        4.88207000       1.27275000       0.76467000
H        4.70974000       2.53403000      -0.24572000
19
Properties=species:S:1:pos:R:3 energy=-1929.37 pbc="F F F"
C        0.98022000       0.10522000       0.01667000
C        2.46558000       0.00940000      -0.02521000
C        3.22731000      -1.09138000      -0.10907000
C        2.77380000      -2.50768000      -0.17783000
C        4.68650000      -0.75364000      -0.08305000
C        4.69108000       0.75435000      -0.32259000
C        3.30087000       1.24983000       0.06828000
H        0.50160000      -0.87682000      -0.04525000
H        0.61578000       0.70788000      -0.82120000
H        0.65674000       0.57737000       0.94962000
H        3.62752000      -3.19064000      -0.23554000
H        2.15633000      -2.67355000      -1.06611000
H        2.19672000      -2.77336000       0.71338000
H        5.11852000      -1.00441000       0.89137000
H        5.24745000      -1.27218000      -0.86652000
H        4.86970000       0.95837000      -1.38701000
H        5.48348000       1.25994000       0.23914000
H        2.96062000       2.03265000      -0.61639000
H        3.28971000       1.64072000       1.09114000
15
Properties=species:S:1:pos:R:3 energy=-1542.16 pbc="F F F"
C        2.14747000      -0.50836000       1.42429000
C        2.30079000       0.06117000       0.02053000
C        2.88666000       1.45202000       0.03261000
C        2.15352000       2.57122000      -0.10815000
N        0.79431000       2.70630000      -0.24823000
C        4.30650000       1.57666000       0.15872000
N        5.45720000       1.67342000       0.26861000
H        1.71656000      -1.51370000       1.37763000
H        1.48465000       0.11504000       2.03385000
H        3.11373000      -0.58067000       1.93453000
H        1.32423000       0.04947000      -0.47748000
H        2.94190000      -0.60237000      -0.57363000
H        2.64999000       3.54391000      -0.12570000
H        0.24136000       1.91115000       0.06216000
H        0.42382000       3.59519000       0.08440000
21
Properties=species:S:1:pos:R:3 energy=-1930.47 pbc="F F F"
C        2.85113000      -0.75593000      -1.06672000
C        2.47440000       0.02561000       0.18515000
C        3.07562000       1.45115000       0.24398000
C        2.55044000       2.21242000       1.48317000
N        1.09347000       2.35922000       1.47149000
C        4.61905000       1.40089000       0.25735000
N        5.22225000       2.73216000       0.24064000
H        2.27951000      -1.68890000      -1.11077000
H        3.91126000      -1.02458000      -1.07222000
H        2.63029000      -0.18110000      -1.97152000
H        2.78068000      -0.54581000       1.06989000
H        1.38023000       0.08605000       0.21335000
H        2.75544000       1.99330000      -0.65722000
H        2.98658000       3.21585000       1.53238000
H        2.84284000       1.68446000       2.39799000
H        0.81925000       2.90001000       0.65234000
H        0.81210000       2.91140000       2.28088000
H        4.99273000       0.86062000      -0.61764000
H        4.96848000       0.86454000       1.14670000
H        4.96246000       3.21198000      -0.62082000
H        6.23754000       2.63961000       0.21590000
19
Properties=species:S:1:pos:R:3 energy=-1805.02 pbc="F F F"
C        1.43096000      -1.24210000      -0.40240000
C        2.73815000      -0.73945000       0.19173000
C        3.03148000       0.70017000      -0.23887000
C        4.30408000       1.26458000       0.39231000
N        5.48734000       0.55934000      -0.04897000
C        6.13903000       0.72970000      -1.23052000
N        5.92579000       1.60128000      -2.14391000
H        1.24439000      -2.27394000      -0.08929000
H        1.46265000      -1.21962000      -1.49628000
H        0.58725000      -0.62913000      -0.07008000
H        3.55007000      -1.40304000      -0.12725000
H        2.68076000      -0.79713000       1.28461000
H        2.18934000       1.33816000       0.05694000
H        3.09893000       0.75010000      -1.33253000
H        4.23885000       1.19261000       1.48403000
H        4.39168000       2.33203000       0.15914000
H        5.73324000      -0.26160000       0.49450000
H        6.95568000      -0.00145000      -1.36717000
H        5.15024000       2.20712000      -1.87327000
19
Properties=species:S:1:pos:R:3 energy=-1777.47 pbc="F F F"
C        0.87600000      -0.58632000      -0.16316000
C        2.40042000      -0.39300000      -0.18060000
C        3.01298000      -1.09756000       1.03870000
C        2.96539000      -0.98567000      -1.47944000
N        2.66323000       1.05938000      -0.12005000
N        3.95940000       1.45901000      -0.16647000
C        4.10349000       2.74217000      -0.14494000
H        0.39933000      -0.09003000      -1.01726000
H        0.42852000      -0.17825000       0.75151000
H        0.61296000      -1.64985000      -0.21079000
H        2.62955000      -0.67885000       1.97681000
H        4.10516000      -1.00476000       1.05331000
H        2.77551000      -2.16790000       1.03362000
H        2.54950000      -0.48400000      -2.36144000
H        2.72242000      -2.05188000      -1.56167000
H        4.05680000      -0.89583000      -1.52690000
H        2.17922000       1.45048000       0.69238000
H        5.11590000       3.17392000      -0.17616000
H        3.26055000       3.45348000      -0.10171000
19
Properties=species:S:1:pos:R:3 energy=-1774.27 pbc="F F F"
C        0.63335000      -1.06427000       0.26041000
C        2.12372000      -0.91427000      -0.05385000
C        2.53797000      -1.94443000      -1.10666000
C        2.47403000       0.50212000      -0.54265000
N        2.19650000       1.51477000       0.48174000
N        2.47378000       2.79146000       0.12496000
C        2.15890000       3.65659000       1.03044000
H        0.32628000      -0.39353000       1.06943000
H        0.40605000      -2.08739000       0.57987000
H        0.01794000      -0.84123000      -0.61824000
H        2.69013000      -1.12558000       0.86219000
H        2.00423000      -1.78655000      -2.05044000
H        2.32352000      -2.96190000      -0.76215000
H        3.61247000      -1.88180000      -1.31034000
H        1.90107000       0.73535000      -1.44911000
H        3.53814000       0.54487000      -0.80640000
H        2.67225000       1.24975000       1.34704000
H        2.34280000       4.72619000       0.84535000
H        1.70008000       3.39108000       1.99889000
17
Properties=species:S:1:pos:R:3 energy=-1645.85 pbc="F F F"
C        2.19380000      -0.32798000       1.52075000
C        2.21011000       0.06451000       0.05514000
C        2.41286000       1.55872000      -0.08732000
C        1.19971000       2.45073000       0.03870000
N        3.62813000       1.99523000      -0.24153000
N        3.71928000       3.38008000      -0.30868000
C        4.94932000       3.74603000      -0.44019000
H        2.04390000      -1.40686000       1.62591000
H        1.38988000       0.18456000       2.05934000
H        3.13917000      -0.06455000       2.00719000
H        1.26971000      -0.22007000      -0.42754000
H        3.02060000      -0.45980000      -0.46278000
H        0.28210000       1.86131000      -0.03752000
H        1.19197000       3.19901000      -0.75851000
H        1.21780000       2.94966000       1.01152000
H        5.19828000       4.81582000      -0.50880000
H        5.78883000       3.03167000      -0.48874000
21
Properties=species:S:1:pos:R:3 energy=-1924.57 pbc="F F F"
C        1.90759000      -0.94050000       2.30869000
C        1.79906000      -0.16812000       0.99885000
C        2.58542000       1.16467000       0.95569000
C        2.08269000       2.18633000       2.01498000
N        0.65781000       2.50329000       1.88118000
N        4.02805000       0.86625000       1.07841000
C        4.88269000       2.02064000       0.83314000
H        1.34390000      -1.87641000       2.23652000
H        1.49426000      -0.37222000       3.14705000
H        2.94602000      -1.19603000       2.54134000
H        0.73930000       0.02227000       0.79040000
H        2.14775000      -0.81753000       0.18497000
H        2.41204000       1.59515000      -0.04046000
H        2.63285000       3.12842000       1.91841000
H        2.27090000       1.81147000       3.02661000
H        0.49360000       2.95038000       0.98094000
H        0.40356000       3.18828000       2.59153000
H        4.26569000       0.13456000       0.40719000
H        4.81381000       2.75031000       1.64393000
H        4.64627000       2.50674000      -0.11849000
H        5.92531000       1.69224000       0.78995000
17
Properties=species:S:1:pos:R:3 energy=-1642.67 pbc="F F F"
C        3.28930000      -0.96206000       1.19279000
C        2.73983000      -0.22250000      -0.01882000
C        2.96898000       1.28354000       0.05493000
C        4.43208000       1.61831000      -0.04000000
N        5.03122000       2.22891000       0.92990000
N        6.37322000       2.43068000       0.62893000
C        6.95866000       3.07074000       1.58552000
H        3.03800000      -2.02568000       1.13027000
H        2.86503000      -0.56698000       2.12126000
H        4.37928000      -0.87937000       1.24906000
H        1.66224000      -0.41200000      -0.08753000
H        3.19805000      -0.63151000      -0.92692000
H        2.54815000       1.69847000       0.97705000
H        2.47167000       1.76678000      -0.79319000
H        4.95982000       1.32205000      -0.96441000
H        8.02936000       3.31216000       1.50799000
H        6.43485000       3.39924000       2.49911000
19
Properties=species:S:1:pos:R:3 energy=-1774.05 pbc="F F F"
C        0.74360000      -0.26884000      -0.17796000
C        2.25035000      -0.21019000       0.01705000
C        2.79701000       1.18782000      -0.27206000
C        4.31123000       1.24475000      -0.06583000
N        4.80462000       2.59622000      -0.34480000
N        6.14169000       2.76490000      -0.21278000
C        6.54217000       3.94893000      -0.53573000
H        0.37257000      -1.27710000       0.03190000
H        0.47055000      -0.01361000      -1.20713000
H        0.23336000       0.42761000       0.49558000
H        2.72767000      -0.94159000      -0.64508000
H        2.49046000      -0.49866000       1.04683000
H        2.30425000       1.91461000       0.38625000
H        2.55296000       1.47016000      -1.30410000
H        4.80337000       0.52898000      -0.73481000
H        4.55838000       0.96693000       0.96573000
H        4.28087000       3.26511000       0.22507000
H        7.61252000       4.19820000      -0.46486000
H        5.86864000       4.74774000      -0.89318000
17
Properties=species:S:1:pos:R:3 energy=-1792.26 pbc="F F F"
C        0.94638000       0.06026000      -0.00496000
C        2.42916000       0.03751000      -0.00028000
C        3.27764000       1.07996000      -0.00291000
C        4.63459000       0.59187000       0.00392000
C        4.62656000      -0.75017000       0.01096000
C        5.78519000      -1.67573000       0.01984000
C        3.20703000      -1.25121000       0.00907000
H        0.56088000       1.08488000      -0.00284000
H        0.55436000      -0.44966000       0.88039000
H        0.56015000      -0.44422000      -0.89594000
H        3.01214000       2.12632000      -0.00918000
H        5.50467000       1.23052000       0.00360000
H        6.73444000      -1.13039000       0.01609000
H        5.76378000      -2.32206000      -0.86296000
H        5.76205000      -2.30720000       0.91329000
H        2.99815000      -1.84623000      -0.88544000
H        2.99242000      -1.83653000       0.90865000
18
Properties=species:S:1:pos:R:3 energy=-1766.88 pbc="F F F"
C        1.06184000       0.51290000       0.15416000
C        2.40073000       0.50238000       0.10469000
C        3.28587000       1.52318000       0.75089000
N        4.08138000       2.19278000      -0.27562000
C        5.00426000       3.18030000       0.28968000
C        6.44128000       2.80063000       0.50630000
C        6.07533000       3.74752000      -0.59919000
H        0.48405000      -0.26410000      -0.33676000
H        0.51480000       1.29165000       0.67676000
H        2.90387000      -0.30004000      -0.43060000
H        3.94191000       1.01252000       1.46603000
H        2.69137000       2.25696000       1.30942000
H        3.44183000       2.64233000      -0.93063000
H        4.56475000       3.87873000       0.99953000
H        6.75800000       1.80134000       0.23038000
H        6.94730000       3.20395000       1.37515000
H        6.33063000       4.79374000      -0.47901000
H        6.14849000       3.38577000      -1.61836000
20
Properties=species:S:1:pos:R:3 energy=-1913.35 pbc="F F F"
C        0.83248000       0.00897000      -0.08121000
C        2.34378000      -0.22627000      -0.13335000
C        2.66095000      -1.32590000      -1.14795000
N        3.00033000       1.04306000      -0.47753000
C        4.46431000       0.99298000      -0.40377000
C        5.25390000       0.89638000      -1.67870000
C        5.24442000       2.17891000      -0.90161000
H        0.57660000       0.76849000       0.66577000
H        0.30688000      -0.91227000       0.19215000
H        0.44437000       0.34239000      -1.05042000
H        2.67029000      -0.55083000       0.86268000
H        2.39062000      -1.02309000      -2.16559000
H        2.10527000      -2.23994000      -0.91159000
H        3.72511000      -1.58340000      -1.14013000
H        2.65088000       1.77564000       0.14122000
H        4.87417000       0.49819000       0.47492000
H        4.71147000       0.86884000      -2.61679000
H        6.15677000       0.29858000      -1.66954000
H        6.14539000       2.45390000      -0.36650000
H        4.70196000       3.01792000      -1.32136000
16
Properties=species:S:1:pos:R:3 energy=-1609.93 pbc="F F F"
C        1.08458000      -0.23285000      -0.99764000
C        2.11311000      -0.12867000      -0.14545000
C        2.92468000       1.11164000       0.06372000
N        4.32340000       0.81812000      -0.22226000
C        5.15727000       1.99419000       0.00160000
C        6.54858000       1.68438000      -0.34797000
C        7.68925000       1.43174000      -0.63477000
H        0.53923000      -1.16684000      -1.09364000
H        0.76632000       0.60026000      -1.61604000
H        2.39069000      -0.99342000       0.45445000
H        2.80730000       1.42524000       1.10768000
H        2.56174000       1.92578000      -0.57525000
H        4.40772000       0.54113000      -1.19935000
H        5.10795000       2.29842000       1.05343000
H        4.81053000       2.83597000      -0.60942000
H        8.69766000       1.20055000      -0.88492000
20
Properties=species:S:1:pos:R:3 energy=-1919.97 pbc="F F F"
C        0.89636000      -0.17311000      -0.07720000
C        2.42835000      -0.18435000       0.04291000
C        2.84886000      -1.00898000       1.26871000
N        2.98222000      -0.85466000      -1.14955000
C        3.00456000       1.25886000       0.09863000
C        2.53142000       2.10231000       1.25521000
C        1.82442000       3.23205000       1.12187000
H        0.56825000       0.41603000      -0.94121000
H        0.42710000       0.25299000       0.81609000
H        0.49830000      -1.18783000      -0.19651000
H        2.41604000      -0.60844000       2.19146000
H        3.93861000      -1.02025000       1.38703000
H        2.51367000      -2.04978000       1.18414000
H        2.67491000      -0.36653000      -1.99076000
H        2.60448000      -1.79935000      -1.22005000
H        2.77507000       1.77458000      -0.84453000
H        4.10084000       1.21147000       0.15447000
H        2.81117000       1.77410000       2.25376000
H        1.53333000       3.61308000       0.14783000
H        1.52458000       3.80550000       1.99385000
21
Properties=species:S:1:pos:R:3 energy=-2063.19 pbc="F F F"
C       -1.52353000       0.75543000       0.13873000
C       -1.52760000      -0.74990000      -0.10431000
C       -0.30039000      -1.49781000       0.41406000
C        0.94826000      -1.23456000      -0.42195000
C        1.74818000       0.00148000      -0.02193000
C        0.95948000       1.23952000       0.39398000
C       -0.30932000       1.50197000      -0.41133000
H       -2.42486000       1.17396000      -0.32658000
H       -1.61945000       0.95014000       1.21421000
H       -1.65142000      -0.94423000      -1.17702000
H       -2.41727000      -1.16726000       0.38397000
H       -0.12343000      -1.27799000       1.47313000
H       -0.52388000      -2.57075000       0.35231000
H        1.61590000      -2.10173000      -0.33971000
H        0.67886000      -1.16921000      -1.48361000
H        2.42042000      -0.26233000       0.80459000
H        2.40427000       0.26328000      -0.86190000
H        0.71673000       1.17733000       1.46212000
H        1.62612000       2.10567000       0.29307000
H       -0.53038000       2.57513000      -0.34582000
H       -0.15859000       1.28030000      -1.47410000
18
Properties=species:S:1:pos:R:3 energy=-1767.83 pbc="F F F"
C        0.97627000      -0.10709000      -0.03859000
C        2.49090000      -0.00628000       0.09657000
C        3.02739000       1.43282000       0.00000000
N        2.55829000       2.26611000       1.10429000
C        4.47139000       1.43282000       0.00000000
C        5.66155000       1.43282000       0.00000000
C        7.10555000       1.43282000       0.00000000
H        0.67279000      -1.15844000      -0.06130000
H        0.63400000       0.36389000      -0.96404000
H        0.46481000       0.36571000       0.80351000
H        2.94503000      -0.61505000      -0.69839000
H        2.79794000      -0.46890000       1.04538000
H        2.67003000       1.87976000      -0.93522000
H        2.86805000       1.85447000       1.98296000
H        1.54239000       2.26930000       1.12838000
H        7.49959000       2.45367000      -0.01168000
H        7.49957000       0.91221000      -0.87822000
H        7.49951000       0.93250000       0.88996000
20
Properties=species:S:1:pos:R:3 energy=-1911.52 pbc="F F F"
C        2.88368000      -0.84703000      -1.10650000
C        2.63431000      -0.17009000       0.23667000
C        3.23532000       1.24804000       0.33012000
N        2.83332000       1.81352000       1.62337000
C        3.10609000       3.23917000       1.73220000
C        4.73781000       1.21328000       0.19727000
C        5.42510000       1.83500000      -0.77133000
H        2.36275000      -1.80909000      -1.14279000
H        3.94809000      -1.04122000      -1.26764000
H        2.51403000      -0.23045000      -1.93153000
H        3.03105000      -0.81171000       1.03495000
H        1.54829000      -0.11306000       0.39053000
H        2.79207000       1.84850000      -0.47536000
H        3.29622000       1.31173000       2.37856000
H        2.61227000       3.80180000       0.93315000
H        4.17814000       3.45822000       1.71618000
H        2.70978000       3.60923000       2.68315000
H        5.28657000       0.63475000       0.93697000
H        4.92629000       2.42237000      -1.53624000
H        6.50751000       1.76781000      -0.81531000
18
Properties=species:S:1:pos:R:3 energy=-1755.5 pbc="F F F"
C        2.81742000      -0.47520000      -1.69622000
C        2.47021000       0.02642000      -0.29745000
C        3.02739000       1.43282000       0.00000000
N        2.50010000       1.84608000       1.30911000
C        2.77143000       3.24416000       1.61641000
C        4.47139000       1.43282000       0.00000000
C        5.66155000       1.43282000       0.00000000
H        2.33171000      -1.43934000      -1.87848000
H        3.89556000      -0.61945000      -1.81611000
H        2.47397000       0.22688000      -2.46146000
H        2.83787000      -0.70068000       0.43804000
H        1.37579000       0.04222000      -0.20798000
H        2.64689000       2.11612000      -0.76961000
H        2.90772000       1.25334000       2.03154000
H        2.38817000       3.90754000       0.83502000
H        3.84138000       3.43553000       1.75624000
H        2.26728000       3.51160000       2.54909000
H        6.72712000       1.43292000       0.00020000
21
Properties=species:S:1:pos:R:3 energy=-1927.87 pbc="F F F"
C        2.09457000      -1.29060000       0.83633000
C        3.17987000      -0.45208000       0.17719000
C        3.00147000       1.03354000       0.49087000
N        4.05991000       1.80699000      -0.16002000
C        3.92192000       3.23917000       0.15104000
C        5.04004000       4.07266000      -0.50379000
N        5.18302000       3.79368000      -1.93856000
H        2.24616000      -2.35084000       0.61262000
H        1.10337000      -1.00425000       0.47126000
H        2.10959000      -1.16697000       1.92367000
H        3.15006000      -0.61737000      -0.90695000
H        4.16032000      -0.79527000       0.53062000
H        3.04382000       1.17990000       1.57661000
H        2.01751000       1.36778000       0.14121000
H        3.96752000       1.70853000      -1.17279000
H        3.96034000       3.39739000       1.23504000
H        2.95056000       3.60211000      -0.20905000
H        5.99478000       3.86053000      -0.00922000
H        4.82582000       5.13741000      -0.36349000
H        5.51616000       2.83315000      -2.03062000
H        5.93394000       4.37625000      -2.30984000
17
Properties=species:S:1:pos:R:3 energy=-1668.68 pbc="F F F"
C        3.46215000      -2.09469000       0.81229000
C        2.94053000      -0.80731000       0.22905000
C        1.64486000      -0.74411000      -0.12473000
N        3.79246000       0.26442000       0.00983000
C        5.11841000       0.51115000       0.28768000
C        5.72566000       1.71207000      -0.41002000
N        5.89695000      -0.13410000       1.08697000
H        4.35635000      -2.43095000       0.27589000
H        2.72866000      -2.90638000       0.74086000
H        3.69575000      -1.97102000       1.87479000
H        0.97287000      -1.58504000       0.02231000
H        1.20931000       0.14622000      -0.56673000
H        3.34474000       1.00264000      -0.52790000
H        5.24546000       2.62379000      -0.04163000
H        5.55991000       1.63129000      -1.48825000
H        6.80091000       1.77236000      -0.21900000
H        5.38406000      -0.88618000       1.54134000
21
Properties=species:S:1:pos:R:3 energy=-1929.2 pbc="F F F"
C        2.40115000      -1.65668000       0.11181000
C        3.72077000      -0.99453000      -0.29364000
C        3.97638000      -1.23666000      -1.78242000
N        3.63348000       0.43465000       0.03951000
C        4.90965000       1.14508000      -0.14109000
C        4.80050000       2.61790000       0.30409000
N        4.23548000       2.76166000       1.65276000
H        2.20934000      -1.53296000       1.18392000
H        2.42790000      -2.73244000      -0.09500000
H        1.55265000      -1.23068000      -0.43578000
H        4.52385000      -1.46219000       0.28920000
H        3.23925000      -0.71728000      -2.40543000
H        3.91694000      -2.30574000      -2.01598000
H        4.97396000      -0.89946000      -2.08108000
H        3.39598000       0.51957000       1.03065000
H        5.21728000       1.13566000      -1.19183000
H        5.69350000       0.65404000       0.44891000
H        4.16835000       3.16966000      -0.40006000
H        5.79503000       3.07455000       0.28077000
H        3.25032000       2.49630000       1.60433000
H        4.23375000       3.75186000       1.89856000
21
Properties=species:S:1:pos:R:3 energy=-1935.18 pbc="F F F"
C        0.93302000      -0.31345000       0.04792000
C        2.47174000      -0.31983000       0.06202000
C        2.95793000      -0.96829000       1.36615000
N        2.94250000      -1.13463000      -1.06468000
C        2.98255000       1.13531000      -0.08413000
C        4.50628000       1.28953000      -0.08344000
N        4.86938000       2.69786000      -0.25269000
H        0.54253000       0.12658000      -0.87713000
H        0.53500000       0.27024000       0.88625000
H        0.52610000      -1.32811000       0.13027000
H        2.68399000      -0.35696000       2.23380000
H        4.04509000      -1.09962000       1.37935000
H        2.51249000      -1.96014000       1.50795000
H        2.56173000      -0.76967000      -1.93686000
H        2.58152000      -2.08418000      -0.97862000
H        2.56648000       1.74197000       0.73277000
H        2.58169000       1.56364000      -1.01397000
H        4.95955000       0.70669000      -0.89165000
H        4.92928000       0.94127000       0.86326000
H        4.53785000       3.02242000      -1.16016000
H        5.88576000       2.77403000      -0.28191000
19
Properties=species:S:1:pos:R:3 energy=-1799.65 pbc="F F F"
C        0.93492000      -0.17665000       0.01675000
C        2.43667000       0.07128000      -0.11646000
C        3.07880000      -0.84569000      -1.15537000
N        2.72336000       1.48518000      -0.41653000
C        2.13412000       2.07718000      -1.60976000
C        3.48629000       2.23187000       0.44714000
N        3.80147000       3.47430000       0.37323000
H        0.49134000       0.50789000       0.74784000
H        0.74417000      -1.20107000       0.35404000
H        0.40690000      -0.03931000      -0.93220000
H        2.88230000      -0.18924000       0.85260000
H        2.63982000      -0.71448000      -2.14934000
H        2.95083000      -1.89588000      -0.87237000
H        4.15281000      -0.64653000      -1.23714000
H        1.65572000       1.33889000      -2.25955000
H        2.90312000       2.57681000      -2.20832000
H        1.37508000       2.81392000      -1.32744000
H        3.86407000       1.65633000       1.30890000
H        3.39261000       3.89128000      -0.46267000
19
Properties=species:S:1:pos:R:3 energy=-1810.76 pbc="F F F"
C        0.86444000      -0.23964000      -0.20676000
C        2.38827000      -0.18963000      -0.14538000
C        2.99682000      -1.23661000      -1.07622000
N        2.85532000       1.12897000      -0.54871000
C        2.73532000       2.27222000       0.19976000
C        2.74821000       3.58695000      -0.54567000
N        2.62233000       2.31526000       1.48249000
H        0.41882000       0.48119000       0.48761000
H        0.49444000      -1.23499000       0.06120000
H        0.49762000       0.00185000      -1.21125000
H        2.72053000      -0.41791000       0.87305000
H        2.70374000      -1.06611000      -2.11860000
H        2.67494000      -2.24448000      -0.79348000
H        4.09132000      -1.20591000      -1.03193000
H        2.82851000       1.27799000      -1.55356000
H        3.71559000       3.71287000      -1.03969000
H        2.58222000       4.42377000       0.13814000
H        1.95853000       3.58258000      -1.30221000
H        2.66273000       1.37254000       1.86717000
21
Properties=species:S:1:pos:R:3 energy=-1934.1 pbc="F F F"
C        0.91119000      -0.06174000      -0.01381000
C        2.42390000       0.03140000       0.13590000
C        2.96189000       1.47563000       0.14709000
N        2.42464000       2.23678000       1.27805000
C        4.50219000       1.45943000       0.20434000
C        5.11755000       2.85575000       0.10258000
N        6.57853000       2.76373000       0.09579000
H        0.60953000      -1.10944000      -0.11681000
H        0.56898000       0.47812000      -0.90243000
H        0.39350000       0.34408000       0.86096000
H        2.88173000      -0.51220000      -0.69985000
H        2.72436000      -0.49218000       1.05146000
H        2.65283000       1.97572000      -0.77914000
H        2.59728000       1.72953000       2.14574000
H        1.41156000       2.31119000       1.19415000
H        4.87942000       0.84406000      -0.62432000
H        4.83520000       0.97352000       1.13117000
H        4.80780000       3.48270000       0.94482000
H        4.79036000       3.34628000      -0.82019000
H        6.89075000       2.34497000       0.97128000
H        6.96732000       3.70658000       0.08228000
21
Properties=species:S:1:pos:R:3 energy=-1934.81 pbc="F F F"
C        1.03830000      -0.16146000       0.36043000
C        2.55982000      -0.15585000       0.28270000
C        3.18660000       1.24507000       0.45220000
N        2.86715000       1.80807000       1.77955000
C        4.73503000       1.18414000       0.24158000
C        5.33410000       2.58576000       0.08535000
N        5.40340000       0.50008000       1.36511000
H        0.65461000      -1.15717000       0.11357000
H        0.60376000       0.55331000      -0.34570000
H        0.68547000       0.08519000       1.36683000
H        2.84967000      -0.55567000      -0.69664000
H        2.95321000      -0.85042000       1.03399000
H        2.76136000       1.91113000      -0.30868000
H        3.12097000       1.10813000       2.47827000
H        1.85766000       1.92197000       1.86214000
H        4.94613000       0.62043000      -0.67512000
H        5.19604000       3.19457000       0.98534000
H        4.86716000       3.11250000      -0.75350000
H        6.40921000       2.52924000      -0.11838000
H        5.23251000       1.06088000       2.20099000
H        6.41227000       0.53208000       1.22024000
17
Properties=species:S:1:pos:R:3 energy=-1665.58 pbc="F F F"
C        2.88041000      -0.72927000      -1.37291000
C        2.47813000      -0.00603000      -0.09057000
C        3.02739000       1.43282000       0.00000000
N        2.43328000       2.04777000       1.21271000
C        2.76349000       3.46209000       1.34401000
C        4.47139000       1.43282000       0.00000000
N        5.62240000       1.43282000       0.00000000
H        2.39619000      -1.71077000      -1.41646000
H        3.96056000      -0.89194000      -1.42079000
H        2.57489000      -0.16099000      -2.25657000
H        2.81447000      -0.60270000       0.76844000
H        1.38092000       0.01926000      -0.04825000
H        2.65966000       1.98403000      -0.87488000
H        2.76078000       1.54785000       2.03955000
H        2.47191000       4.02626000       0.45127000
H        3.82926000       3.61783000       1.53535000
H        2.21250000       3.88242000       2.19158000
19
Properties=species:S:1:pos:R:3 energy=-1797.33 pbc="F F F"
C        0.83243000       0.11079000       0.02550000
C        2.33413000      -0.12615000       0.03803000
C        3.10680000       1.19219000       0.01893000
N        4.54707000       0.94998000       0.00683000
C        5.18315000       0.73744000       1.30166000
C        5.25520000       0.68185000      -1.13646000
N        4.85501000       0.66831000      -2.35621000
H        0.29757000      -0.84356000       0.05108000
H        0.52840000       0.64650000      -0.87929000
H        0.52058000       0.69867000       0.89451000
H        2.60911000      -0.74005000      -0.82777000
H        2.60057000      -0.70336000       0.93168000
H        2.83554000       1.79486000       0.89468000
H        2.81505000       1.79447000      -0.84936000
H        4.54303000       1.05172000       2.13244000
H        6.11337000       1.31130000       1.36658000
H        5.41710000      -0.32365000       1.43770000
H        6.31702000       0.44904000      -0.93828000
H        3.86310000       0.89675000      -2.40474000
19
Properties=species:S:1:pos:R:3 energy=-1762.62 pbc="F F F"
C        1.37201000      -0.77721000       0.78593000
C        2.40593000      -0.22007000      -0.20043000
C        3.32665000      -1.34409000      -0.68826000
N        1.71323000       0.50430000      -1.29586000
C        2.66707000       1.35495000      -2.02650000
N        0.90093000      -0.25885000      -2.08076000
C       -0.17925000       0.35659000      -2.43249000
H        0.71552000       0.01810000       1.15635000
H        1.87112000      -1.22281000       1.65374000
H        0.74603000      -1.55172000       0.32889000
H        3.01272000       0.49822000       0.36635000
H        2.77608000      -2.10185000      -1.25639000
H        3.79903000      -1.84752000       0.16296000
H        4.13148000      -0.95993000      -1.32269000
H        3.23322000       1.99638000      -1.34262000
H        2.12967000       2.02337000      -2.70880000
H        3.36774000       0.76401000      -2.62539000
H       -0.91477000      -0.15826000      -3.07002000
H       -0.42261000       1.38980000      -2.12614000
17
Properties=species:S:1:pos:R:3 energy=-1785.51 pbc="F F F"
C        0.94012000      -0.00174000       0.05756000
C        2.46987000      -0.00012000       0.09672000
C        2.97786000       0.00300000       1.54013000
C        3.03517000       1.16734000      -0.68381000
C        3.78069000       0.71881000      -1.70715000
C        3.78106000      -0.72197000      -1.70314000
C        3.03782000      -1.16778000      -0.68023000
H        0.55768000      -0.00188000      -0.97063000
H        0.53094000       0.88315000       0.55974000
H        0.53313000      -0.88767000       0.55927000
H        4.07390000       0.00258000       1.58762000
H        2.62543000      -0.88097000       2.08484000
H        2.62636000       0.88988000       2.08101000
H        2.86066000       2.20667000      -0.44712000
H        4.30507000       1.32443000      -2.42969000
H        4.30734000      -1.33012000      -2.42443000
H        2.86530000      -2.20719000      -0.43971000
14
Properties=species:S:1:pos:R:3 energy=-1426.08 pbc="F F F"
C        0.98282000      -0.12121000      -0.08078000
C        2.48200000       0.00000000       0.00000000
C        3.18500000      -1.21763000       0.00000000
N        3.76051000      -2.21444000       0.00000000
C        3.15304000       1.17963000       0.03117000
N        2.53574000       2.40326000       0.03470000
N        4.51983000       1.27958000       0.06860000
H        0.46377000       0.83527000      -0.18729000
H        0.59314000      -0.60999000       0.82010000
H        0.69811000      -0.72980000      -0.94817000
H        1.59787000       2.39626000       0.42435000
H        3.11308000       3.08300000       0.52334000
H        5.02147000       0.43101000      -0.18781000
H        4.84037000       2.06615000      -0.49099000
19
Properties=species:S:1:pos:R:3 energy=-1924.91 pbc="F F F"
C        0.96642000       0.00225000      -0.05305000
C        2.50783000      -0.00056000      -0.00226000
C        2.95706000      -0.00139000       1.46096000
C        3.06427000      -1.22293000      -0.76830000
C        3.33234000      -0.67022000      -2.13240000
C        3.33421000       0.66661000      -2.13238000
C        3.06869000       1.21999000      -0.76825000
H        0.59266000       0.00382000      -1.08293000
H        0.55946000       0.88725000       0.44885000
H        0.55633000      -0.88216000       0.44733000
H        4.04972000      -0.00416000       1.54117000
H        2.58331000      -0.88666000       1.98702000
H        2.58789000       0.88603000       1.98665000
H        2.34472000      -2.04702000      -0.80851000
H        3.99918000      -1.59852000      -0.33742000
H        3.53368000      -1.28675000      -2.99732000
H        3.53827000       1.28230000      -2.99724000
H        4.00500000       1.59213000      -0.33730000
H        2.35217000       2.04673000      -0.80829000
21
Properties=species:S:1:pos:R:3 energy=-1919.15 pbc="F F F"
C        0.92617000      -0.82722000       0.22020000
C        2.07140000      -0.12630000      -0.52848000
C        2.66777000      -1.05630000      -1.62713000
N        3.26708000      -2.28323000      -1.08998000
N        1.72870000       1.20753000      -1.08219000
C        0.65074000       1.19436000      -2.06923000
C        1.44022000       2.18697000      -0.03391000
H        0.52774000      -0.20415000       1.02578000
H        1.27727000      -1.75356000       0.68869000
H        0.10222000      -1.09080000      -0.45110000
H        2.88025000       0.03558000       0.19887000
H        3.44102000      -0.51532000      -2.18574000
H        1.89051000      -1.34980000      -2.34131000
H        4.04289000      -2.03290000      -0.47888000
H        3.67444000      -2.81336000      -1.85958000
H        0.89931000       0.56357000      -2.92723000
H        0.49632000       2.20123000      -2.47567000
H       -0.30274000       0.85565000      -1.64936000
H        2.24662000       2.21807000       0.70807000
H        0.49766000       1.98527000       0.48557000
H        1.37707000       3.19342000      -0.46329000
19
Properties=species:S:1:pos:R:3 energy=-1767.82 pbc="F F F"
C        1.46142000      -0.16473000       1.31315000
C        2.90310000      -0.22896000       0.84530000
C        3.10881000       0.70890000      -0.31105000
N        3.87343000       1.74600000      -0.18919000
N        3.93754000       2.48888000      -1.32666000
C        2.94448000       3.57181000      -1.41577000
C        5.26701000       3.06083000      -1.58183000
H        1.30058000      -0.85066000       2.15022000
H        0.77369000      -0.43965000       0.50677000
H        1.20085000       0.84678000       1.64135000
H        3.14334000      -1.24169000       0.50716000
H        3.58006000       0.03485000       1.66420000
H        2.57400000       0.47102000      -1.24897000
H        1.93125000       3.16769000      -1.30969000
H        2.98784000       4.06563000      -2.39291000
H        3.09492000       4.32170000      -0.63108000
H        6.02058000       2.26549000      -1.59708000
H        5.55159000       3.78460000      -0.80929000
H        5.30398000       3.55311000      -2.56049000
20
Properties=species:S:1:pos:R:3 energy=-1909.85 pbc="F F F"
C        2.86930000      -0.93970000      -0.29539000
C        2.33623000       0.42662000       0.11337000
N        3.43529000       1.39123000       0.10055000
C        3.41815000       2.30592000      -1.03503000
C        3.08436000       2.79623000       0.36269000
C        1.66991000       3.22284000       0.65362000
C        4.12887000       3.59624000       1.10063000
H        2.06590000      -1.68194000      -0.26068000
H        3.66390000      -1.27326000       0.37939000
H        3.26772000      -0.92047000      -1.31464000
H        1.92931000       0.35292000       1.12951000
H        1.50639000       0.68923000      -0.55464000
H        2.62658000       2.21573000      -1.76926000
H        4.38773000       2.55083000      -1.45362000
H        0.94190000       2.80705000      -0.05100000
H        1.58286000       4.31354000       0.59035000
H        1.38084000       2.92043000       1.66622000
H        5.14574000       3.24909000       0.88472000
H        3.97141000       3.52135000       2.18186000
H        4.06966000       4.65217000       0.81657000
20
Properties=species:S:1:pos:R:3 energy=-1928.68 pbc="F F F"
C        2.24597000      -0.24992000      -1.53185000
C        2.39368000       0.15961000      -0.07149000
N        3.08123000       1.44244000       0.07779000
C        2.31680000       2.58328000      -0.42862000
C        3.02649000       3.77890000       0.19122000
C        3.70105000       3.23822000       1.44595000
C        3.34002000       1.76169000       1.48425000
H        1.81798000      -1.25600000      -1.59663000
H        3.21719000      -0.26582000      -2.03848000
H        1.58186000       0.42745000      -2.07798000
H        2.97992000      -0.61964000       0.43170000
H        1.40609000       0.17624000       0.40578000
H        1.27382000       2.55487000      -0.08896000
H        2.32777000       2.64409000      -1.52125000
H        3.78392000       4.17967000      -0.49352000
H        2.32394000       4.58635000       0.42313000
H        4.78588000       3.37203000       1.37119000
H        3.35937000       3.75826000       2.34617000
H        4.15433000       1.15954000       1.90081000
H        2.44506000       1.61462000       2.10378000
13
Properties=species:S:1:pos:R:3 energy=-1402.19 pbc="F F F"
C        2.61862000      -1.12898000       0.35917000
C        2.17715000       0.12222000       0.16964000
N        2.98464000       1.26327000       0.11027000
C        2.49847000       2.54924000      -0.08758000
C        3.56535000       3.41164000      -0.08963000
C        4.67500000       2.58437000       0.11237000
N        4.34341000       1.29995000       0.23335000
H        1.93009000      -1.96587000       0.39369000
H        3.67717000      -1.34014000       0.48344000
H        1.11479000       0.30601000       0.04825000
H        1.43879000       2.72155000      -0.20736000
H        3.54235000       4.48358000      -0.21870000
H        5.71953000       2.86135000       0.17754000
17
Properties=species:S:1:pos:R:3 energy=-1654.61 pbc="F F F"
C        2.52955000      -0.76404000       1.01091000
C        2.50162000       0.25261000      -0.12310000
N        2.73058000       1.62470000       0.33160000
C        4.01902000       1.84291000       0.99216000
C        4.14475000       3.35162000       0.90812000
C        3.19944000       3.61328000      -0.21463000
N        2.43186000       2.62652000      -0.53829000
H        2.25718000      -1.75463000       0.63171000
H        1.81505000      -0.49801000       1.79756000
H        3.52476000      -0.84453000       1.45981000
H        1.51334000       0.19821000      -0.59582000
H        3.23528000      -0.02378000      -0.88945000
H        4.83970000       1.37058000       0.43868000
H        4.03354000       1.49401000       2.02889000
H        5.15291000       3.68521000       0.65334000
H        3.78629000       3.86720000       1.80343000
H        3.16350000       4.59719000      -0.70242000
19
Properties=species:S:1:pos:R:3 energy=-1783.05 pbc="F F F"
C        1.01067000       0.53968000       0.45509000
C        2.50484000       0.57459000       0.73481000
N        3.17184000       1.45742000      -0.22126000
C        4.62520000       1.50181000      -0.01935000
C        5.51593000       0.66217000      -0.89017000
C        5.49058000       2.14967000      -1.07571000
N        6.64976000       2.95254000      -0.68346000
H        0.50649000      -0.10343000       1.18322000
H        0.80521000       0.14376000      -0.54482000
H        0.56882000       1.53906000       0.52668000
H        2.90885000      -0.44146000       0.65964000
H        2.67154000       0.93022000       1.75840000
H        2.77372000       2.39411000      -0.15289000
H        4.94054000       1.64252000       1.01241000
H        5.05707000       0.05510000      -1.66246000
H        6.38893000       0.20799000      -0.43903000
H        4.98960000       2.50796000      -1.97320000
H        7.11805000       2.56084000       0.13219000
H        6.35633000       3.89209000      -0.41771000
19
Properties=species:S:1:pos:R:3 energy=-1768.66 pbc="F F F"
C        1.50900000      -0.00029000       1.68473000
C        2.83508000      -0.04614000       0.94138000
N        3.56284000       1.20629000       1.14557000
C        4.83968000       1.16217000       0.41713000
C        5.66143000       2.43234000       0.73097000
N        6.85109000       1.56571000       0.94322000
C        5.93284000       0.43580000       1.23269000
H        0.95521000      -0.93063000       1.52394000
H        0.88570000       0.82862000       1.33269000
H        1.66204000       0.11827000       2.76263000
H        2.63939000      -0.20181000      -0.12589000
H        3.41887000      -0.89860000       1.30722000
H        3.65801000       1.39146000       2.14480000
H        4.79069000       0.90885000      -0.64794000
H        5.37857000       2.98904000       1.63298000
H        5.76192000       3.14297000      -0.09516000
H        7.39594000       1.42855000       0.09122000
H        6.25749000      -0.52689000       0.82584000
H        5.73981000       0.31020000       2.30512000
20
Properties=species:S:1:pos:R:3 energy=-1905.0 pbc="F F F"
C        3.44268000      -0.69557000      -0.46774000
C        2.68970000       0.07730000       0.60914000
N        3.14394000       1.47322000       0.74205000
C        2.24318000       2.19308000       1.64868000
C        4.54621000       1.57765000       1.19608000
C        5.63140000       1.75647000       0.16581000
C        5.27602000       2.89021000       1.07711000
H        2.98705000      -1.68194000      -0.60601000
H        4.49054000      -0.85416000      -0.19462000
H        3.40781000      -0.17285000      -1.42919000
H        2.77264000      -0.45471000       1.56535000
H        1.62922000       0.06992000       0.32653000
H        1.21245000       2.16231000       1.27845000
H        2.51872000       3.25139000       1.71052000
H        2.26321000       1.77480000       2.66156000
H        4.79552000       0.97608000       2.06926000
H        5.34397000       1.84040000      -0.87624000
H        6.57198000       1.24466000       0.32766000
H        5.97530000       3.15044000       1.86249000
H        4.75636000       3.73676000       0.64477000
18
Properties=species:S:1:pos:R:3 energy=-1773.82 pbc="F F F"
C        0.88871000       0.13276000      -0.03333000
C        2.42289000       0.02664000       0.01926000
N        2.76772000      -0.79942000       1.17647000
C        2.90488000      -0.72913000      -1.20341000
C        3.77539000      -0.33566000      -2.14523000
C        2.99450000       1.42964000       0.12450000
C        3.78045000       1.94976000       1.08108000
H        0.55665000       0.69337000      -0.91625000
H        0.48925000       0.64601000       0.85028000
H        0.41377000      -0.85549000      -0.08069000
H        2.44301000      -0.33386000       2.02028000
H        3.78252000      -0.84979000       1.23864000
H        2.48192000      -1.72914000      -1.31053000
H        4.26193000       0.63334000      -2.12349000
H        4.02982000      -0.99764000      -2.96781000
H        2.71245000       2.09385000      -0.69375000
H        4.12011000       1.38003000       1.93853000
H        4.10954000       2.98288000       1.01746000
16
Properties=species:S:1:pos:R:3 energy=-1617.42 pbc="F F F"
C        0.99389000      -0.01615000       0.16589000
C        2.52000000       0.00000000       0.00000000
N        3.11309000      -0.70682000       1.13686000
C        2.89385000      -0.77105000      -1.24715000
C        3.49629000      -0.33009000      -2.36312000
C        3.00202000       1.36117000       0.00000000
C        3.39930000       2.48307000       0.00000000
H        0.49731000       0.49085000      -0.67139000
H        0.68087000       0.49856000       1.08341000
H        0.59914000      -1.03896000       0.21055000
H        2.87398000      -0.20437000       1.98965000
H        4.12657000      -0.63849000       1.05218000
H        2.62792000      -1.82837000      -1.21712000
H        3.79867000       0.70378000      -2.49293000
H        3.70132000      -1.01195000      -3.18247000
H        3.75527000       3.48739000      -0.00245000
14
Properties=species:S:1:pos:R:3 energy=-1457.1 pbc="F F F"
C        0.98586000      -0.01678000       0.01219000
C        2.52000000       0.00000000       0.00000000
N        2.99321000      -0.66926000       1.21189000
C        3.01150000      -0.76158000      -1.16656000
C        3.41500000      -1.37976000      -2.11499000
C        3.00202000       1.36117000       0.00000000
C        3.39930000       2.48307000       0.00000000
H        0.57542000       0.46636000      -0.88401000
H        0.57981000       0.51684000       0.88093000
H        0.59180000      -1.04074000       0.03545000
H        2.70893000      -0.11910000       2.01911000
H        4.01152000      -0.65327000       1.20234000
H        3.77478000      -1.92928000      -2.95401000
H        3.75698000       3.48692000      -0.00556000
22
Properties=species:S:1:pos:R:3 energy=-2061.92 pbc="F F F"
C        0.95847000      -0.11457000      -0.01812000
C        2.48644000       0.00785000      -0.03668000
N        2.99619000      -0.77073000      -1.17367000
C        3.02506000       1.47969000      -0.04365000
C        2.57925000       2.27180000      -1.28836000
C        2.53243000       2.23375000       1.20954000
C        4.57008000       1.47054000      -0.00279000
H        0.52870000       0.36492000       0.86588000
H        0.65578000      -1.16782000       0.01810000
H        0.49876000       0.32734000      -0.90759000
H        2.86204000      -0.48075000       0.87219000
H        2.59850000      -0.41565000      -2.04230000
H        2.67723000      -1.73616000      -1.09675000
H        2.93641000       1.81043000      -2.21482000
H        2.97670000       3.29355000      -1.26352000
H        1.48914000       2.35266000      -1.34829000
H        2.78076000       1.68415000       2.12442000
H        1.44901000       2.39066000       1.19110000
H        2.99661000       3.22439000       1.28281000
H        4.93802000       0.91142000       0.86490000
H        4.97017000       2.48890000       0.06630000
H        4.99805000       1.01643000      -0.90297000
14
Properties=species:S:1:pos:R:3 energy=-1458.09 pbc="F F F"
C        0.99359000      -0.04041000      -0.01184000
C        2.52000000       0.00000000       0.00000000
N        3.05038000      -0.70767000      -1.16177000
C        3.00202000       1.36117000       0.00000000
C        3.39930000       2.48307000       0.00000000
C        3.90956000       3.92639000       0.00003000
C        4.31102000       5.05930000       0.00006000
H        0.58361000       0.47226000       0.86613000
H        0.62666000      -1.07280000       0.00521000
H        0.58024000       0.45088000      -0.90101000
H        2.87429000      -0.51331000       0.90099000
H        2.73094000      -0.24260000      -2.01041000
H        2.66262000      -1.64825000      -1.19146000
H        4.66840000       6.06100000      -0.00032000
18
Properties=species:S:1:pos:R:3 energy=-1764.35 pbc="F F F"
C        0.92271000      -0.07294000       0.08494000
C        2.44608000      -0.08794000      -0.03869000
N        2.84068000      -0.98235000      -1.12764000
C        2.98419000       1.33189000      -0.27232000
C        4.51363000       1.38973000      -0.31169000
C        4.98345000       2.77788000      -0.44970000
C        5.37114000       3.90967000      -0.56542000
H        0.60909000       0.56389000       0.91912000
H        0.53321000      -1.07964000       0.27305000
H        0.44850000       0.30862000      -0.82637000
H        2.86646000      -0.47904000       0.89528000
H        2.43588000      -0.65717000      -2.00590000
H        2.44875000      -1.91047000      -0.96820000
H        2.62129000       1.98572000       0.53255000
H        2.57542000       1.74230000      -1.20599000
H        4.89812000       0.79739000      -1.14948000
H        4.92583000       0.95689000       0.60728000
H        5.71669000       4.91154000      -0.67039000
22
Properties=species:S:1:pos:R:3 energy=-2050.09 pbc="F F F"
C        2.74274000      -1.21800000      -0.38597000
C        2.47087000      -0.22993000       0.74397000
N        3.14121000       1.06826000       0.55218000
C        2.53328000       2.10983000       1.39822000
C        2.70612000       1.94437000       2.90568000
C        4.60247000       0.95844000       0.68906000
C        5.35321000       2.26291000       0.43289000
H        2.10501000      -2.10099000      -0.26793000
H        3.78013000      -1.56496000      -0.38768000
H        2.52110000      -0.77386000      -1.36210000
H        2.75062000      -0.68573000       1.70160000
H        1.38416000      -0.07722000       0.76894000
H        1.45933000       2.16317000       1.17549000
H        2.91631000       3.09324000       1.10155000
H        2.25279000       1.01586000       3.26550000
H        2.21360000       2.77282000       3.42594000
H        3.75969000       1.95377000       3.19888000
H        4.98031000       0.24344000      -0.04978000
H        4.88133000       0.56782000       1.67482000
H        5.05654000       2.71017000      -0.52160000
H        6.43066000       2.06961000       0.39053000
H        5.18556000       2.99381000       1.22994000
22
Properties=species:S:1:pos:R:3 energy=-2057.81 pbc="F F F"
C        2.78917000      -0.32571000      -1.80229000
C        3.97829000      -0.07035000      -0.88700000
N        4.43943000       1.30608000      -1.05633000
C        5.51057000       1.68894000      -0.12532000
C        6.78753000       0.86740000      -0.32928000
C        5.79415000       3.20013000      -0.26300000
C        6.26230000       3.64659000      -1.64366000
H        2.45471000      -1.36317000      -1.70542000
H        3.05341000      -0.15368000      -2.85205000
H        1.94565000       0.32577000      -1.54975000
H        4.76962000      -0.77961000      -1.14909000
H        3.67750000      -0.25467000       0.15002000
H        3.65004000       1.94149000      -0.93584000
H        5.16110000       1.52674000       0.90328000
H        7.09937000       0.85278000      -1.37850000
H        6.64724000      -0.16997000      -0.00709000
H        7.61206000       1.27811000       0.26317000
H        6.55491000       3.49029000       0.47401000
H        4.88921000       3.76356000      -0.00315000
H        7.20136000       3.16157000      -1.92658000
H        6.43435000       4.72761000      -1.64720000
H        5.51384000       3.42789000      -2.41202000
22
Properties=species:S:1:pos:R:3 energy=-2058.97 pbc="F F F"
C        1.82272000       0.66701000       0.04873000
C        3.01366000       1.46680000       0.56072000
N        4.19640000       1.12921000      -0.22693000
C        5.44696000       1.81266000       0.15337000
C        5.86637000       1.47418000       1.59365000
C        6.53366000       1.28430000      -0.80370000
C        5.34571000       3.33721000      -0.01937000
H        0.92792000       0.90970000       0.63191000
H        2.00107000      -0.40951000       0.13759000
H        1.61108000       0.89569000      -1.00153000
H        3.15862000       1.22309000       1.61705000
H        2.77445000       2.53193000       0.48065000
H        4.00234000       1.30286000      -1.21364000
H        5.18126000       1.90247000       2.33254000
H        6.86386000       1.87190000       1.81346000
H        5.90272000       0.39050000       1.75330000
H        6.29462000       1.51365000      -1.84900000
H        6.64855000       0.19729000      -0.71761000
H        7.50756000       1.73644000      -0.58378000
H        5.00571000       3.60258000      -1.02702000
H        6.32068000       3.81360000       0.13443000
H        4.65221000       3.78543000       0.70002000
20
Properties=species:S:1:pos:R:3 energy=-1916.15 pbc="F F F"
C        0.99893000      -0.00658000      -0.17595000
C        2.51622000       0.00767000      -0.06823000
N        3.00186000       1.38674000      -0.07059000
C        4.45631000       1.42605000       0.04552000
C        4.91150000       2.85295000       0.03786000
C        5.59700000       3.43585000       1.03500000
C        6.05712000       4.85661000       1.01243000
H        0.63191000      -1.03772000      -0.17651000
H        0.66345000       0.47138000      -1.10235000
H        0.53545000       0.51537000       0.66780000
H        2.93756000      -0.54468000      -0.91583000
H        2.81385000      -0.50389000       0.85449000
H        2.59967000       1.88869000       0.72027000
H        4.91868000       0.91402000      -0.80609000
H        4.78378000       0.91884000       0.96112000
H        4.66346000       3.42520000      -0.85433000
H        5.84629000       2.86418000       1.92616000
H        5.81242000       5.35698000       0.07001000
H        7.14217000       4.89786000       1.14760000
H        5.58720000       5.41376000       1.82871000
18
Properties=species:S:1:pos:R:3 energy=-1762.25 pbc="F F F"
C        1.16906000      -0.59350000      -0.14272000
C        2.68056000      -0.45110000      -0.23465000
N        3.07426000       0.89567000       0.16779000
C        4.52283000       1.06475000       0.09910000
C        4.88203000       2.40989000       0.56636000
C        5.17337000       3.51032000       0.94919000
C        5.51891000       4.85519000       1.41069000
H        0.86585000      -1.59913000      -0.45130000
H        0.66304000       0.12624000      -0.79517000
H        0.81644000      -0.43499000       0.88210000
H        2.99347000      -0.64587000      -1.26672000
H        3.15089000      -1.20096000       0.41190000
H        2.76893000       1.07615000       1.12329000
H        4.87097000       0.93280000      -0.93102000
H        5.02799000       0.31859000       0.72499000
H        4.62133000       5.47081000       1.52243000
H        6.18483000       5.35189000       0.69874000
H        6.02627000       4.81584000       2.37924000
19
Properties=species:S:1:pos:R:3 energy=-1920.19 pbc="F F F"
C        0.90223000      -0.04199000       0.23107000
C        2.43158000       0.00343000       0.08067000
C        2.83208000       1.30690000      -0.63542000
C        3.96245000       1.26222000      -1.66024000
C        4.37555000      -0.08486000      -2.13834000
C        3.92059000      -1.23348000      -1.62857000
C        2.92785000      -1.32349000      -0.52300000
H        0.53019000       0.85223000       0.74268000
H        0.58834000      -0.91753000       0.80810000
H        0.41810000      -0.09577000      -0.75229000
H        2.84230000       0.06069000       1.09885000
H        3.10562000       2.04324000       0.13532000
H        1.95482000       1.74755000      -1.12499000
H        4.84442000       1.76586000      -1.25229000
H        3.65694000       1.85501000      -2.53436000
H        5.09825000      -0.11781000      -2.94862000
H        4.28423000      -2.17330000      -2.03783000
H        2.08461000      -1.92425000      -0.88435000
H        3.38283000      -1.91441000       0.28388000
21
Properties=species:S:1:pos:R:3 energy=-1936.69 pbc="F F F"
C        0.83977000      -0.11948000      -0.00872000
C        2.36409000      -0.02291000       0.03625000
N        2.93212000      -0.88505000      -1.01911000
C        2.93822000       1.44006000      -0.05580000
C        2.40593000       2.21559000      -1.27211000
C        2.62945000       2.22925000       1.22623000
N        4.41172000       1.35305000      -0.21244000
H        0.37972000       0.47389000       0.78703000
H        0.51602000      -1.15722000       0.13394000
H        0.43335000       0.22015000      -0.96711000
H        2.69355000      -0.45424000       0.99080000
H        3.91995000      -0.61135000      -1.09228000
H        2.54215000      -0.60782000      -1.91913000
H        2.60834000       1.69193000      -2.21275000
H        2.86912000       3.20733000      -1.34426000
H        1.32481000       2.37561000      -1.20222000
H        3.00300000       1.70868000       2.11536000
H        1.55268000       2.38018000       1.35433000
H        3.09375000       3.22238000       1.20526000
H        4.80388000       0.86956000       0.59682000
H        4.81271000       2.29088000      -0.19941000
21
Properties=species:S:1:pos:R:3 energy=-1935.47 pbc="F F F"
C        2.93193000      -0.83616000       1.38031000
C        2.62152000      -0.23676000       0.00950000
N        1.16947000      -0.23293000      -0.20070000
C        3.14935000       1.20240000      -0.14784000
C        4.67633000       1.35821000      -0.01517000
C        5.44782000       0.56793000      -1.06979000
N        5.01658000       2.78104000      -0.12979000
H        4.00977000      -0.96146000       1.52314000
H        2.47886000      -1.82859000       1.48661000
H        2.55187000      -0.20395000       2.19069000
H        3.05805000      -0.87639000      -0.76449000
H        0.72247000       0.35959000       0.49889000
H        0.79705000      -1.16992000      -0.05501000
H        2.66333000       1.84453000       0.60115000
H        2.83480000       1.58644000      -1.12925000
H        4.99521000       1.03012000       0.97868000
H        5.12611000       0.82995000      -2.08426000
H        5.30960000      -0.50978000      -0.93678000
H        6.52435000       0.76214000      -0.99729000
H        4.73000000       3.13102000      -1.04402000
H        6.02848000       2.89853000      -0.08872000
17
Properties=species:S:1:pos:R:3 energy=-1667.61 pbc="F F F"
C        1.08603000      -0.28808000       0.08855000
C        2.60662000      -0.25840000       0.07217000
N        3.07788000       1.12768000       0.08921000
C        4.54514000       1.18176000       0.07761000
C        5.03809000       2.63034000       0.03636000
C        6.50557000       2.67126000       0.02521000
N        7.66592000       2.69860000       0.02319000
H        0.72957000      -1.32313000       0.06466000
H        0.67053000       0.23138000      -0.78179000
H        0.68858000       0.18412000       0.99291000
H        2.96193000      -0.76901000      -0.82978000
H        2.98532000      -0.80289000       0.94528000
H        2.71655000       1.59312000       0.92264000
H        4.92744000       0.64733000      -0.80203000
H        4.94445000       0.67941000       0.96739000
H        4.66437000       3.17924000       0.90946000
H        4.64901000       3.13575000      -0.85467000
21
Properties=species:S:1:pos:R:3 energy=-1921.53 pbc="F F F"
C        1.02496000      -0.05193000      -0.01439000
C        2.54468000      -0.03915000       0.04134000
N        3.03360000       1.33841000      -0.02358000
C        4.50090000       1.37284000       0.02856000
C        5.02298000       2.82264000      -0.00636000
N        6.49042000       2.84640000       0.03935000
C        6.98854000       4.21564000       0.03571000
H        0.65582000      -1.08115000       0.03423000
H        0.65953000       0.39379000      -0.94543000
H        0.59141000       0.50132000       0.82524000
H        2.93601000      -0.62093000      -0.80101000
H        2.87328000      -0.51972000       0.97026000
H        2.65783000       1.86689000       0.76424000
H        4.91001000       0.82282000      -0.82788000
H        4.85480000       0.88416000       0.94495000
H        4.61814000       3.37016000       0.85386000
H        4.66840000       3.31688000      -0.91947000
H        6.85576000       2.35717000      -0.77801000
H        6.64083000       4.76523000       0.91630000
H        6.68199000       4.75310000      -0.86744000
H        8.08252000       4.20466000       0.06602000
19
Properties=species:S:1:pos:R:3 energy=-1803.75 pbc="F F F"
C        2.34421000      -0.31622000      -0.29117000
C        3.86008000      -0.41403000      -0.33362000
N        4.41174000       0.88264000       0.04281000
C        5.69474000       1.03200000       0.09695000
C        6.67062000      -0.08995000      -0.20422000
N        6.24871000       2.24280000       0.44383000
C        5.46022000       3.32042000       0.99608000
H        1.89121000      -1.26878000      -0.58162000
H        1.98300000       0.45957000      -0.97421000
H        1.99730000      -0.06265000       0.71588000
H        4.16654000      -0.68826000      -1.34911000
H        4.18318000      -1.19637000       0.36200000
H        6.54249000      -0.89340000       0.52616000
H        7.70370000       0.26486000      -0.14966000
H        6.49557000      -0.47815000      -1.21083000
H        7.22819000       2.25098000       0.70197000
H        4.60892000       3.56159000       0.35100000
H        6.07700000       4.21945000       1.08502000
H        5.09278000       3.05702000       1.99251000
15
Properties=species:S:1:pos:R:3 energy=-1523.09 pbc="F F F"
C        1.13507000      -0.50772000       0.07381000
C        2.46147000      -0.34562000       0.06251000
N        3.13094000       0.84857000      -0.01771000
C        4.47814000       1.13561000      -0.04364000
N        5.41748000       0.23759000      -0.03022000
C        4.98656000       2.54249000      -0.09411000
C        4.22809000       3.64498000      -0.09791000
H        0.70301000      -1.50135000       0.14271000
H        0.45088000       0.33134000       0.01553000
H        3.09453000      -1.22620000       0.12549000
H        2.51216000       1.64842000      -0.06228000
H        5.00229000      -0.69196000      -0.00217000
H        6.07021000       2.62755000      -0.12640000
H        3.14700000       3.63515000      -0.06282000
H        4.70407000       4.62102000      -0.13487000
19
Properties=species:S:1:pos:R:3 energy=-1790.09 pbc="F F F"
C        0.94724000       0.05575000       0.05160000
C        2.48042000      -0.06934000       0.00221000
N        2.88969000      -0.93178000       1.12903000
C        2.93147000      -0.74914000      -1.33531000
N        2.48565000      -2.14618000      -1.44759000
C        3.08676000       1.32030000       0.08766000
C        3.90310000       1.82250000       1.02657000
H        0.56950000       0.62603000      -0.80497000
H        0.61541000       0.57100000       0.96166000
H        0.45663000      -0.92426000       0.03426000
H        2.58393000      -0.49947000       1.99889000
H        3.90621000      -0.97357000       1.15590000
H        4.02777000      -0.73910000      -1.39198000
H        2.55808000      -0.18962000      -2.20060000
H        2.54800000      -2.54590000      -0.50520000
H        3.13958000      -2.66568000      -2.02862000
H        2.80713000       1.98657000      -0.73081000
H        4.23832000       1.25039000       1.88422000
H        4.25652000       2.84724000       0.95428000
17
Properties=species:S:1:pos:R:3 energy=-1634.77 pbc="F F F"
C        0.99098000      -0.01607000       0.07042000
C        2.52000000       0.00000000       0.00000000
N        3.04822000      -0.69977000       1.17988000
C        3.00421000      -0.74768000      -1.28927000
N        4.46545000      -0.97428000      -1.32491000
C        3.00202000       1.36117000       0.00000000
C        3.39930000       2.48307000       0.00000000
H        0.54829000       0.48839000      -0.79819000
H        0.61996000       0.49872000       0.96661000
H        0.59977000      -1.04101000       0.09082000
H        3.08723000      -0.05676000       1.96728000
H        4.01540000      -0.95178000       0.95584000
H        2.71527000      -0.18410000      -2.18489000
H        2.51826000      -1.72889000      -1.35025000
H        4.93426000      -0.06803000      -1.32506000
H        4.70499000      -1.41936000      -2.20943000
H        3.75318000       3.48838000       0.00550000
19
Properties=species:S:1:pos:R:3 energy=-1809.36 pbc="F F F"
C        1.38615000      -0.35747000      -0.70021000
C        2.80151000      -0.27731000      -0.15490000
N        3.29863000       1.07727000      -0.27195000
C        4.60173000       1.47219000      -0.12313000
N        5.60999000       0.67876000       0.00026000
C        4.88206000       2.96496000      -0.09172000
C        4.93405000       3.47092000       1.33766000
H        1.01396000      -1.38446000      -0.64648000
H        1.35234000      -0.03478000      -1.74595000
H        0.70718000       0.28395000      -0.12996000
H        3.43343000      -0.96865000      -0.72320000
H        2.81516000      -0.58762000       0.89662000
H        2.59862000       1.80309000      -0.14800000
H        5.30214000      -0.29176000      -0.03932000
H        4.10198000       3.49519000      -0.65057000
H        5.83767000       3.15776000      -0.59322000
H        3.98492000       3.29212000       1.85275000
H        5.13705000       4.54602000       1.35350000
H        5.72175000       2.96549000       1.90534000
17
Properties=species:S:1:pos:R:3 energy=-1663.75 pbc="F F F"
C        1.87148000      -0.54257000      -0.50890000
C        3.29708000      -0.35498000      -0.01704000
N        3.94448000       0.70757000      -0.76532000
C        5.24135000       1.11286000      -0.56403000
N        6.14911000       0.34026000      -0.05511000
C        5.71584000       2.48247000      -0.92154000
C        4.97837000       3.41846000      -1.53097000
H        1.37515000      -1.33830000       0.05535000
H        1.85620000      -0.81357000      -1.57012000
H        1.28785000       0.37646000      -0.38936000
H        3.83685000      -1.29936000      -0.14249000
H        3.28724000      -0.10283000       1.04888000
H        3.30948000       1.45848000      -1.00867000
H        5.75472000      -0.58182000       0.12189000
H        6.74950000       2.68716000      -0.65548000
H        3.95250000       3.26592000      -1.83824000
H        5.41768000       4.38625000      -1.75366000
17
Properties=species:S:1:pos:R:3 energy=-1620.97 pbc="F F F"
C        1.51728000       2.68586000       0.09215000
C        2.71756000       1.93245000       0.57256000
N        3.77629000       1.84380000      -0.16319000
N        4.75588000       1.12379000       0.44672000
C        6.00007000       1.89044000       0.76166000
C        6.58616000       1.44147000      -0.58229000
C        5.58158000       0.28692000      -0.47527000
H        0.65473000       2.01435000       0.09212000
H        1.67782000       3.07835000      -0.91520000
H        1.31882000       3.51082000       0.78083000
H        2.64547000       1.47275000       1.57541000
H        6.53380000       1.49800000       1.63563000
H        5.87543000       2.97077000       0.88832000
H        6.39116000       2.13195000      -1.41092000
H        7.64308000       1.16537000      -0.58126000
H        5.09893000      -0.01006000      -1.41200000
H        5.98433000      -0.61160000       0.00743000
17
Properties=species:S:1:pos:R:3 energy=-1661.76 pbc="F F F"
C        4.26046000      -1.97134000       1.14057000
C        3.19237000      -0.99437000       0.71145000
N        1.94414000      -1.21474000       0.98694000
N        3.51188000       0.14198000       0.01835000
C        4.80917000       0.78357000       0.19593000
C        6.01953000       0.34628000      -0.57846000
C        5.36670000       1.66035000      -0.89088000
H        4.82633000      -2.29855000       0.26377000
H        3.82042000      -2.85059000       1.61881000
H        4.93893000      -1.49009000       1.84995000
H        1.83918000      -2.09572000       1.50035000
H        2.69554000       0.73997000      -0.08352000
H        4.96352000       1.13124000       1.21503000
H        5.90774000      -0.45612000      -1.29809000
H        6.97586000       0.35973000      -0.06935000
H        5.88172000       2.56715000      -0.59720000
H        4.81815000       1.74016000      -1.82223000
17
Properties=species:S:1:pos:R:3 energy=-1636.38 pbc="F F F"
C        0.93917000       0.19350000      -0.46333000
C        2.38412000       0.05138000      -0.06726000
N        3.01019000      -1.05983000       0.18342000
N        2.26748000      -2.18701000       0.09839000
C        3.18288000       1.30043000       0.02507000
C        2.78700000       2.39169000       0.99243000
C        4.02100000       1.58123000       1.25092000
H        0.70357000       1.23185000      -0.71154000
H        0.30069000      -0.12378000       0.36604000
H        0.73035000      -0.42703000      -1.33934000
H        2.88966000      -2.99832000       0.13688000
H        1.66789000      -2.28231000       0.92177000
H        3.60422000       1.61360000      -0.92537000
H        1.93616000       2.23066000       1.64460000
H        2.91265000       3.41990000       0.67314000
H        4.98623000       2.05092000       1.10221000
H        4.00148000       0.86107000       2.06166000
17
Properties=species:S:1:pos:R:3 energy=-1654.0 pbc="F F F"
C        0.94242000       0.99630000       0.55561000
C        2.42242000       0.84175000       0.41011000
N        3.18531000       1.87558000       0.27305000
N        4.51582000       1.48913000       0.15449000
C        5.33364000       2.48752000      -0.00267000
C        4.90954000       3.93621000      -0.04863000
C        6.80593000       2.19108000      -0.12100000
H        0.63202000       0.55304000       1.50511000
H        0.44903000       0.45977000      -0.25874000
H        0.65336000       2.04992000       0.52978000
H        2.82277000      -0.18747000       0.42485000
H        4.12480000       4.07545000      -0.79620000
H        5.75867000       4.57042000      -0.31570000
H        4.54070000       4.23746000       0.93500000
H        6.98927000       1.11387000      -0.08025000
H        7.33814000       2.67624000       0.70155000
H        7.17831000       2.58144000      -1.07160000
17
Properties=species:S:1:pos:R:3 energy=-1634.06 pbc="F F F"
C        3.95084000      -1.91206000      -1.15597000
C        4.18158000      -0.43328000      -1.12058000
N        5.22030000       0.05614000      -0.52439000
N        5.27779000       1.41115000      -0.57014000
C        6.46337000       2.01439000       0.04119000
C        6.42102000       3.50385000      -0.12975000
C        6.40550000       4.38516000       0.88044000
H        2.98748000      -2.12944000      -0.68840000
H        4.74442000      -2.44545000      -0.62763000
H        3.91660000      -2.23989000      -2.19756000
H        3.42902000       0.19917000      -1.62586000
H        4.45468000       1.83319000      -0.13401000
H        7.36798000       1.63245000      -0.44719000
H        6.51673000       1.74008000       1.10165000
H        6.41747000       3.87083000      -1.15298000
H        6.41646000       4.06422000       1.91756000
H        6.38280000       5.45209000       0.68429000
13
Properties=species:S:1:pos:R:3 energy=-1343.14 pbc="F F F"
C        0.82034000       0.53303000      -0.05871000
C        2.27929000       0.25670000       0.10184000
N        2.85958000      -0.88553000       0.28853000
N        1.96280000      -1.95088000       0.33777000
C        2.59278000      -3.06108000       0.52639000
C        3.23122000       1.33674000       0.05361000
C        4.02295000       2.24008000       0.01264000
H        0.63703000       1.60314000      -0.18888000
H        0.28132000       0.18868000       0.82848000
H        0.44105000       0.00105000      -0.93583000
H        2.03139000      -4.00559000       0.59057000
H        3.68973000      -3.12189000       0.62998000
H        4.73178000       3.03398000      -0.02236000
19
Properties=species:S:1:pos:R:3 energy=-1779.04 pbc="F F F"
C        3.55585000       5.02593000      -2.79112000
C        3.80185000       4.65129000      -1.33852000
N        4.85515000       3.63794000      -1.24744000
N        5.16250000       3.23440000       0.00723000
C        6.15798000       2.40840000       0.05251000
C        6.62883000       1.85073000       1.36698000
C        6.40239000       0.35191000       1.40387000
H        2.77241000       5.78738000      -2.85578000
H        3.23149000       4.15864000      -3.37484000
H        4.46100000       5.43245000      -3.25325000
H        2.87407000       4.26794000      -0.89756000
H        4.09759000       5.54577000      -0.77804000
H        4.60814000       2.84758000      -1.84737000
H        6.69984000       2.07806000      -0.85339000
H        6.09505000       2.33629000       2.19045000
H        7.69598000       2.07187000       1.46555000
H        5.33939000       0.11301000       1.29504000
H        6.75339000      -0.06461000       2.35305000
H        6.93968000      -0.14758000       0.59051000
15
Properties=species:S:1:pos:R:3 energy=-1476.52 pbc="F F F"
C        0.91398000      -0.26558000      -0.52046000
C        2.17431000      -0.41969000       0.31501000
N        2.87184000       0.86409000       0.42089000
N        4.02643000       0.83383000       1.13528000
C        4.67380000       1.94696000       1.11574000
C        5.88313000       1.89062000       1.88653000
C        6.89724000       1.84648000       2.53092000
H        0.39508000      -1.22624000      -0.60028000
H        1.15023000       0.07571000      -1.53396000
H        0.22276000       0.45370000      -0.06832000
H        2.83081000      -1.16178000      -0.15290000
H        1.90877000      -0.78482000       1.31357000
H        2.22108000       1.56213000       0.79057000
H        4.38890000       2.87196000       0.58967000
H        7.79358000       1.79411000       3.10292000
19
Properties=species:S:1:pos:R:3 energy=-1914.48 pbc="F F F"
C        1.04022000      -0.07530000      -0.05416000
C        2.53174000       0.08044000      -0.00915000
C        3.44144000      -0.59540000      -1.08967000
C        4.51805000      -0.31795000       0.00663000
C        3.39380000      -0.75225000       0.99871000
C        4.57482000       1.20271000       0.12329000
C        3.07294000       1.50963000       0.11045000
H        0.57395000       0.33086000       0.84977000
H        0.75340000      -1.12955000      -0.13090000
H        0.61515000       0.44843000      -0.91694000
H        3.55919000      -0.06284000      -2.03837000
H        3.23639000      -1.65141000      -1.30321000
H        5.44590000      -0.88688000      -0.01497000
H        3.18284000      -1.82774000       1.04246000
H        3.46617000      -0.36800000       2.02083000
H        5.05035000       1.52885000       1.05365000
H        5.09339000       1.66414000      -0.72296000
H        2.79430000       2.13449000      -0.74435000
H        2.75199000       2.00207000       1.03422000
14
Properties=species:S:1:pos:R:3 energy=-1415.86 pbc="F F F"
C        0.55799000      -0.37973000       0.15312000
C        1.99973000       0.06194000       0.09270000
N        2.94770000      -0.81538000       0.14789000
N        2.26774000       1.39234000      -0.04744000
C        3.61356000       1.87070000      -0.33413000
C        3.66346000       3.34321000      -0.40632000
N        3.67458000       4.50344000      -0.47570000
H       -0.10126000       0.46914000       0.35321000
H        0.43038000      -1.12300000       0.94518000
H        0.28332000      -0.82897000      -0.80545000
H        2.55641000      -1.75906000       0.24820000
H        1.50950000       2.01039000      -0.31610000
H        3.95267000       1.45419000      -1.28952000
H        4.30404000       1.52810000       0.44503000
18
Properties=species:S:1:pos:R:3 energy=-1770.08 pbc="F F F"
C        1.11246000       0.01534000       0.02261000
N        2.56723000       0.00550000      -0.03740000
C        3.16519000       1.00765000      -1.00248000
C        2.78892000       0.03090000      -2.15369000
C        3.16412000      -0.97051000      -1.02909000
C        4.67277000      -0.75322000      -0.86481000
C        4.67379000       0.78645000      -0.84527000
H        0.79966000       0.75520000       0.76669000
H        0.74879000      -0.95752000       0.36874000
H        0.58386000       0.26309000      -0.90106000
H        2.76544000       2.02167000      -1.00503000
H        3.42964000       0.04207000      -3.04288000
H        1.75519000       0.02393000      -2.50868000
H        2.76596000      -1.98408000      -1.05647000
H        5.05666000      -1.17568000       0.07019000
H        5.24765000      -1.15590000      -1.70470000
H        5.24717000       1.20901000      -1.67616000
H        5.05875000       1.18507000       0.09860000
17
Properties=species:S:1:pos:R:3 energy=-1638.73 pbc="F F F"
C        0.78219000       0.01636000       0.00012000
N        2.22118000       0.03987000       0.20638000
C        3.02063000      -0.82578000      -0.64797000
C        2.61249000      -1.43032000      -1.95208000
N        2.81084000      -0.35928000      -2.95186000
C        2.62413000       0.92698000      -2.24965000
C        3.02590000       0.66218000      -0.83501000
H        0.34831000       0.94467000       0.38592000
H        0.34871000      -0.80781000       0.57607000
H        0.44068000      -0.09543000      -1.03265000
H        3.88927000      -1.29117000      -0.20227000
H        3.23933000      -2.29274000      -2.20394000
H        1.57216000      -1.76877000      -1.95275000
H        3.78657000      -0.40210000      -3.24782000
H        3.26022000       1.69297000      -2.70600000
H        1.58787000       1.26647000      -2.33707000
H        3.89794000       1.21724000      -0.51653000
17
Properties=species:S:1:pos:R:3 energy=-1747.29 pbc="F F F"
C        3.01708000      -1.16368000      -0.51369000
C        2.44215000       0.06824000       0.16606000
C        3.42691000       1.19793000       0.17563000
C        3.54015000       2.12242000      -1.00673000
C        2.93444000       2.62286000       0.28078000
C        3.68395000       3.54943000       1.07752000
C        4.30945000       4.32624000       1.74582000
H        2.28973000      -1.98118000      -0.50060000
H        3.92514000      -1.50478000      -0.00555000
H        3.27647000      -0.95161000      -1.55613000
H        2.17653000      -0.17925000       1.20000000
H        1.51577000       0.36051000      -0.34244000
H        4.33917000       0.93659000       0.70240000
H        2.87574000       1.97443000      -1.85048000
H        4.53038000       2.46579000      -1.28569000
H        1.85935000       2.78018000       0.27911000
H        4.86539000       5.01461000       2.33832000
16
Properties=species:S:1:pos:R:3 energy=-1605.88 pbc="F F F"
C        1.18502000      -0.16122000       0.00261000
N        2.64398000      -0.11757000      -0.03954000
C        3.19797000      -0.55339000      -1.31707000
C        3.16795000       0.91363000      -0.94079000
C        4.42527000       1.63078000      -0.55451000
C        4.98726000       2.09809000      -1.82809000
C        5.45590000       2.48470000      -2.86490000
H        0.81842000       0.55602000       0.74425000
H        0.85749000      -1.15818000       0.31494000
H        0.69793000       0.06691000      -0.95342000
H        2.52295000      -0.90079000      -2.08973000
H        4.14167000      -1.08327000      -1.26491000
H        2.44779000       1.56356000      -1.42724000
H        5.13235000       0.97609000      -0.03423000
H        4.19110000       2.47502000       0.10152000
H        5.87367000       2.82772000      -3.78359000
18
Properties=species:S:1:pos:R:3 energy=-1760.52 pbc="F F F"
C        0.89366000       0.03629000       0.32954000
N        2.30147000       0.18372000      -0.02289000
C        2.98782000       1.08119000       0.93091000
C        4.08026000       0.00858000       1.13444000
C        3.08680000      -0.96864000       0.46906000
C        5.41067000       0.21788000       0.48639000
C        5.55394000       0.52349000      -0.80870000
H        0.43820000      -0.75412000      -0.27667000
H        0.35515000       0.96447000       0.11005000
H        0.72845000      -0.20935000       1.38561000
H        2.43751000       1.31396000       1.85215000
H        3.31545000       2.03006000       0.49289000
H        4.23611000      -0.22320000       2.19698000
H        3.49087000      -1.60427000      -0.32624000
H        2.57913000      -1.62270000       1.19034000
H        6.29055000       0.11178000       1.11487000
H        4.70258000       0.63904000      -1.47380000
H        6.54043000       0.66676000      -1.23852000
20
Properties=species:S:1:pos:R:3 energy=-1910.33 pbc="F F F"
C        1.04860000      -0.03279000       0.05705000
N        2.50241000      -0.06323000       0.04764000
C        3.07725000       0.97275000       0.93270000
C        4.15429000      -0.05226000       1.33880000
C        3.12250000      -1.12920000       0.88889000
C        2.29635000      -1.69684000       2.04400000
C        3.70882000      -2.23157000       0.01202000
H        0.64918000      -0.93738000      -0.41302000
H        0.69931000       0.81740000      -0.53876000
H        0.60249000       0.06466000       1.05206000
H        2.44329000       1.29889000       1.76676000
H        3.45313000       1.85946000       0.41335000
H        5.06328000       0.00103000       0.72720000
H        4.43949000      -0.04904000       2.39440000
H        1.89580000      -0.91602000       2.69957000
H        2.91736000      -2.34772000       2.67014000
H        1.45884000      -2.30016000       1.67762000
H        4.30766000      -1.82526000      -0.81116000
H        2.91627000      -2.84867000      -0.42583000
H        4.36003000      -2.88847000       0.59877000
20
Properties=species:S:1:pos:R:3 energy=-1928.73 pbc="F F F"
C        0.99793000       0.03516000       0.13006000
N        2.44949000       0.00804000      -0.03518000
C        2.92798000      -1.28636000      -0.53932000
C        2.62805000      -1.53170000      -2.01996000
C        3.13744000      -0.38405000      -2.88519000
C        2.63658000       0.95762000      -2.36014000
C        2.93555000       1.11681000      -0.86761000
H        0.68365000       0.98240000       0.58192000
H        0.67769000      -0.75621000       0.81688000
H        0.45162000      -0.09005000      -0.80985000
H        2.51407000      -2.10438000       0.06306000
H        4.01431000      -1.33261000      -0.38622000
H        3.10017000      -2.46759000      -2.33929000
H        1.54968000      -1.65585000      -2.17125000
H        4.23504000      -0.38749000      -2.88509000
H        2.81715000      -0.52470000      -3.92378000
H        3.11488000       1.77036000      -2.91852000
H        1.55881000       1.04387000      -2.54078000
H        4.02210000       1.19593000      -0.73124000
H        2.52677000       2.06864000      -0.50746000
20
Properties=species:S:1:pos:R:3 energy=-1908.95 pbc="F F F"
C        1.07414000      -0.00792000       0.19176000
N        2.51727000       0.01430000      -0.00504000
C        3.15339000       1.03962000       0.85698000
C        4.26050000      -0.00268000       1.18857000
C        4.67875000      -0.04207000       2.65374000
C        5.47418000       0.03906000       0.25793000
C        3.17690000      -1.04785000       0.79255000
H        0.64210000      -0.87577000      -0.31864000
H        0.62356000       0.88655000      -0.25277000
H        0.77190000      -0.05028000       1.24554000
H        2.56237000       1.36273000       1.72453000
H        3.48880000       1.93463000       0.32262000
H        3.81122000      -0.07139000       3.32164000
H        5.26832000       0.84325000       2.91463000
H        5.28757000      -0.92837000       2.86180000
H        5.18159000       0.06518000      -0.79728000
H        6.10553000      -0.84386000       0.40412000
H        6.08301000       0.92798000       0.45436000
H        3.53227000      -1.90019000       0.20419000
H        2.59454000      -1.43715000       1.63830000
19
Properties=species:S:1:pos:R:3 energy=-1781.22 pbc="F F F"
C        1.10930000      -0.01300000       0.10680000
N        2.56165000       0.00266000      -0.01565000
C        3.15373000       1.03486000       0.88665000
C        4.24676000      -0.00668000       1.27420000
C        4.77199000      -0.03087000       2.68690000
N        5.33081000       0.03449000       0.26801000
C        3.17670000      -1.05273000       0.83864000
H        0.70124000      -0.87323000      -0.43354000
H        0.68760000       0.88826000      -0.35183000
H        0.75279000      -0.06317000       1.14222000
H        2.52053000       1.34044000       1.73052000
H        3.49816000       1.94146000       0.37794000
H        3.95352000      -0.05298000       3.41411000
H        5.37779000       0.85686000       2.90066000
H        5.39369000      -0.91540000       2.86450000
H        4.94556000       0.12620000      -0.67704000
H        5.89084000      -0.81593000       0.24294000
H        3.54220000      -1.92788000       0.28993000
H        2.55167000      -1.41224000       1.66814000
19
Properties=species:S:1:pos:R:3 energy=-1777.5 pbc="F F F"
C        1.00620000       0.01591000       0.13632000
N        2.45504000       0.04038000      -0.03140000
C        3.07183000       1.02109000       0.89428000
C        4.15502000      -0.03903000       1.21498000
C        5.43370000      -0.00613000       0.38644000
N        6.32664000       1.05351000       0.85803000
C        3.08963000      -1.05644000       0.73884000
H        0.58201000      -0.83099000      -0.41395000
H        0.56783000       0.92804000      -0.28263000
H        0.68375000      -0.06477000       1.18137000
H        2.46913000       1.30116000       1.76830000
H        3.42440000       1.93769000       0.41179000
H        4.37858000      -0.13232000       2.28614000
H        5.22440000       0.14149000      -0.67906000
H        5.95601000      -0.96373000       0.48698000
H        5.91156000       1.95986000       0.64414000
H        7.19315000       1.01669000       0.32045000
H        3.45913000      -1.88534000       0.12683000
H        2.49159000      -1.47402000       1.55972000
17
Properties=species:S:1:pos:R:3 energy=-1673.22 pbc="F F F"
C        0.96282000      -0.04076000      -0.01815000
N        2.40453000       0.03638000      -0.15845000
C        3.05310000       1.27055000       0.25267000
C        4.46522000       1.27827000      -0.30835000
C        5.19072000       0.01932000       0.14295000
N        4.44491000      -1.20882000      -0.15028000
C        3.16914000      -1.09794000      -0.25341000
H        0.49390000       0.93370000      -0.18973000
H        0.69539000      -0.38177000       0.98651000
H        0.54136000      -0.73922000      -0.74828000
H        2.50549000       2.14114000      -0.12509000
H        3.07186000       1.33406000       1.34732000
H        5.00595000       2.17051000       0.02592000
H        4.42805000       1.30815000      -1.40536000
H        5.39578000       0.06103000       1.21853000
H        6.16016000      -0.03402000      -0.36535000
H        2.57373000      -2.00523000      -0.45251000
17
Properties=species:S:1:pos:R:3 energy=-1673.08 pbc="F F F"
C        1.12316000       0.00647000      -0.17071000
N        2.56484000       0.01805000      -0.25208000
C        3.29294000      -1.17933000       0.11494000
C        4.66394000      -0.61621000       0.50433000
N        4.56887000       0.86645000       0.44472000
C        3.35334000       1.10866000       0.02793000
C        2.89613000       2.52900000      -0.13658000
H        0.72762000      -0.99537000      -0.36850000
H        0.68727000       0.68115000      -0.91361000
H        0.78924000       0.31453000       0.82554000
H        3.37036000      -1.86838000      -0.73186000
H        2.83055000      -1.70012000       0.95969000
H        5.44376000      -0.96277000      -0.18213000
H        4.93780000      -0.92686000       1.51803000
H        1.83330000       2.59348000      -0.37379000
H        3.46717000       2.99320000      -0.94594000
H        3.08744000       3.08014000       0.78836000
19
Properties=species:S:1:pos:R:3 energy=-1793.03 pbc="F F F"
C        1.01158000       0.03801000       0.16611000
N        2.46420000       0.01158000      -0.00297000
C        2.91586000      -1.28036000      -0.55695000
C        2.63862000      -1.47288000      -2.06649000
N        3.16034000      -0.37239000      -2.89470000
C        2.64665000       0.90926000      -2.38047000
C        2.92284000       1.11319000      -0.87235000
H        0.69896000       0.98323000       0.62417000
H        0.69323000      -0.75698000       0.85006000
H        0.46227000      -0.08214000      -0.77320000
H        2.47698000      -2.11218000       0.00815000
H        3.99921000      -1.35319000      -0.39248000
H        3.10416000      -2.40765000      -2.39856000
H        1.56231000      -1.58274000      -2.24507000
H        4.17571000      -0.36201000      -2.79226000
H        3.11862000       1.72292000      -2.94336000
H        1.57091000       0.97632000      -2.58355000
H        4.00637000       1.22034000      -0.73110000
H        2.48844000       2.06513000      -0.54310000
15
Properties=species:S:1:pos:R:3 energy=-1647.73 pbc="F F F"
C        1.20343000      -0.23623000      -0.63458000
C        2.47463000      -0.03358000      -0.26824000
C        3.11511000       1.25524000      -0.16396000
C        4.41904000       1.40354000       0.14598000
C        4.79235000       2.85516000       0.19058000
C        3.49189000       3.51783000      -0.13627000
C        2.54973000       2.58489000      -0.33279000
H        0.80217000      -1.24331000      -0.68746000
H        0.53337000       0.57652000      -0.89182000
H        3.08661000      -0.90128000      -0.02890000
H        5.11887000       0.60399000       0.33923000
H        5.55658000       3.09019000      -0.55572000
H        5.14489000       3.14214000       1.18548000
H        3.34350000       4.58488000      -0.19891000
H        1.51700000       2.77854000      -0.57848000
19
Properties=species:S:1:pos:R:3 energy=-1783.29 pbc="F F F"
C        2.59501000      -0.91018000      -0.40247000
N        2.22866000       0.32716000       0.27229000
C        3.31085000       1.31990000       0.24229000
C        3.43892000       2.24558000      -0.93387000
C        3.00804000       2.80568000       0.39682000
C        1.57549000       3.26494000       0.52196000
N        3.97703000       3.63307000       1.14464000
H        1.75235000      -1.60789000      -0.37304000
H        3.45103000      -1.39035000       0.08303000
H        2.83905000      -0.72931000      -1.45448000
H        1.96557000       0.12064000       1.23558000
H        4.24282000       0.97211000       0.68485000
H        2.70159000       2.17292000      -1.72612000
H        4.43420000       2.47309000      -1.29675000
H        0.89737000       2.70865000      -0.13349000
H        1.49167000       4.32439000       0.25574000
H        1.22655000       3.14226000       1.55296000
H        4.93242000       3.31088000       0.99810000
H        3.80250000       3.55626000       2.14616000
20
Properties=species:S:1:pos:R:3 energy=-1908.05 pbc="F F F"
C        1.66463000      -0.48248000      -1.03954000
N        2.26985000       0.07371000       0.16425000
C        3.13950000       1.22330000      -0.12623000
C        4.35038000       0.91296000      -0.98778000
C        2.27285000       2.47007000      -0.45816000
C        3.12641000       3.25698000       0.55905000
C        3.44696000       1.90872000       1.23935000
H        0.93252000      -1.24441000      -0.75215000
H        2.40684000      -0.96777000      -1.68086000
H        1.12990000       0.27501000      -1.62141000
H        2.73722000      -0.67352000       0.67703000
H        5.02139000       1.77582000      -1.06019000
H        4.06064000       0.64960000      -2.01039000
H        4.93038000       0.08155000      -0.57183000
H        1.21656000       2.41096000      -0.16707000
H        2.32939000       2.83347000      -1.48837000
H        3.99988000       3.74983000       0.11736000
H        2.58472000       3.98098000       1.17324000
H        4.47058000       1.80970000       1.61225000
H        2.75686000       1.67578000       2.06029000
20
Properties=species:S:1:pos:R:3 energy=-1904.2 pbc="F F F"
C        1.37714000      -0.45866000      -0.01648000
N        2.82854000      -0.33075000      -0.17287000
C        3.21430000      -0.73315000      -1.52709000
C        3.23888000       1.04789000       0.12836000
C        4.73380000       1.17094000       0.17934000
C        5.50500000       1.76032000      -0.97700000
C        5.36882000       2.53430000       0.30307000
H        1.07481000      -0.21024000       1.00691000
H        1.05968000      -1.49252000      -0.19225000
H        0.82821000       0.19270000      -0.70654000
H        2.86013000      -1.74815000      -1.74112000
H        4.30304000      -0.76765000      -1.63467000
H        2.80833000      -0.06089000      -2.29117000
H        2.86453000       1.32526000       1.12196000
H        2.80536000       1.75804000      -0.58784000
H        5.19045000       0.36987000       0.75144000
H        4.95591000       2.11145000      -1.84317000
H        6.47001000       1.32563000      -1.21122000
H        6.24510000       2.62763000       0.93468000
H        4.72807000       3.40846000       0.30305000
22
Properties=species:S:1:pos:R:3 energy=-2048.32 pbc="F F F"
C        0.98046000      -0.07710000      -0.05694000
N        2.44101000       0.04426000      -0.08205000
C        2.97040000      -0.79189000      -1.16378000
C        2.95005000       1.44713000      -0.07290000
C        2.52222000       2.27093000      -1.30564000
C        2.45286000       2.18001000       1.19677000
C        4.49594000       1.45442000       0.00206000
H        0.54351000       0.40563000       0.82138000
H        0.68903000      -1.13141000       0.02051000
H        0.50930000       0.33100000      -0.95656000
H        2.60269000      -1.82000000      -1.06409000
H        4.06025000      -0.87333000      -1.12182000
H        2.67952000      -0.43047000      -2.15516000
H        2.88932000       1.83201000      -2.23896000
H        2.92729000       3.28834000      -1.24992000
H        1.43433000       2.36492000      -1.37891000
H        2.67344000       1.60145000       2.10144000
H        1.37599000       2.37572000       1.16872000
H        2.94234000       3.15528000       1.30588000
H        4.85688000       0.82698000       0.82488000
H        4.87750000       2.46808000       0.17295000
H        4.95719000       1.10233000      -0.92678000
20
Properties=species:S:1:pos:R:3 energy=-1909.28 pbc="F F F"
C        2.14336000      -1.34693000      -0.08829000
N        3.58884000      -1.10785000      -0.13736000
C        4.12589000      -1.60599000      -1.40623000
C        3.85903000       0.32875000       0.03788000
C        5.32938000       0.67002000       0.14713000
C        6.08527000       0.04401000       1.28489000
C        5.92647000       1.51275000      -0.71403000
H        1.73070000      -1.02671000       0.87400000
H        1.92565000      -2.41597000      -0.18185000
H        1.60978000      -0.81628000      -0.88650000
H        3.88598000      -2.66841000      -1.53212000
H        5.21850000      -1.54035000      -1.42854000
H        3.72641000      -1.06076000      -2.26857000
H        3.38621000       0.67043000       0.96999000
H        3.38829000       0.90548000      -0.77073000
H        5.59018000       0.26036000       2.23783000
H        7.11034000       0.42635000       1.35340000
H        6.14579000      -1.04244000       1.16079000
H        5.37875000       1.97004000      -1.53182000
H        6.97990000       1.76020000      -0.62805000
20
Properties=species:S:1:pos:R:3 energy=-1905.71 pbc="F F F"
C        1.15236000      -0.28507000      -0.04313000
N        2.60797000      -0.22620000       0.12081000
C        3.22937000      -1.33419000      -0.60751000
C        3.10993000       1.08616000      -0.33256000
C        4.59265000       1.33156000       0.00304000
C        5.03558000       2.70676000      -0.41973000
C        5.52988000       3.62847000       0.41734000
H        0.66529000       0.50028000       0.54533000
H        0.76042000      -1.23880000       0.32732000
H        0.84919000      -0.17105000      -1.09066000
H        2.80546000      -2.29230000      -0.28615000
H        4.30135000      -1.39606000      -0.39645000
H        3.09082000      -1.24583000      -1.69146000
H        2.52697000       1.87420000       0.16439000
H        2.94578000       1.20756000      -1.41176000
H        5.22973000       0.60891000      -0.51799000
H        4.75418000       1.18768000       1.07887000
H        4.95641000       2.94522000      -1.47863000
H        5.63719000       3.43476000       1.47969000
H        5.84196000       4.60173000       0.05077000
20
Properties=species:S:1:pos:R:3 energy=-1914.62 pbc="F F F"
C        3.10293000      -0.99074000      -0.55555000
N        2.66521000      -0.01714000       0.43343000
C        3.34852000       1.27329000       0.30789000
C        2.64120000       2.28250000       1.21965000
C        4.83881000       1.20730000       0.61149000
C        5.27496000       0.74038000       1.97512000
C        5.75171000       1.56254000      -0.31126000
H        2.49466000      -1.89614000      -0.46308000
H        4.14835000      -1.28200000      -0.41439000
H        2.96981000      -0.61241000      -1.57436000
H        2.79155000      -0.38874000       1.37163000
H        3.20064000       1.63683000      -0.71849000
H        2.64290000       1.96564000       2.26849000
H        1.59559000       2.41032000       0.91647000
H        3.12268000       3.26518000       1.16354000
H        4.91576000      -0.27362000       2.17462000
H        4.89460000       1.40750000       2.75442000
H        6.36628000       0.72058000       2.06976000
H        5.45798000       1.90196000      -1.30017000
H        6.81703000       1.52108000      -0.10574000
14
Properties=species:S:1:pos:R:3 energy=-1448.23 pbc="F F F"
C        1.07736000      -0.13520000      -0.21947000
N        2.48949000      -0.00049000       0.11466000
C        2.96070000       1.38568000       0.00000000
C        2.41440000       2.21512000       1.09268000
C        1.96929000       2.89167000       1.98019000
C        4.40470000       1.38568000       0.00000000
C        5.59486000       1.38568000       0.00000000
H        0.79325000      -1.19072000      -0.15942000
H        0.86964000       0.20677000      -1.23872000
H        0.43624000       0.40991000       0.48004000
H        3.03160000      -0.56991000      -0.53250000
H        2.62592000       1.80154000      -0.95954000
H        1.57858000       3.48445000       2.77475000
H        6.66022000       1.38445000       0.01118000
20
Properties=species:S:1:pos:R:3 energy=-1916.01 pbc="F F F"
C        0.93824000       0.87321000      -1.24862000
N        2.39192000       0.93979000      -1.19787000
C        2.84205000       1.59687000       0.02682000
C        4.34116000       1.62265000       0.03711000
C        5.16663000       2.68855000       0.05322000
C        4.73403000       4.12869000       0.04863000
C        6.66099000       2.49553000       0.06925000
H        0.62865000       0.37631000      -2.17320000
H        0.48927000       1.87185000      -1.23745000
H        0.53862000       0.29123000      -0.41209000
H        2.72986000       1.47994000      -1.99398000
H        2.50819000       1.02790000       0.90283000
H        2.40808000       2.59704000       0.10415000
H        4.78622000       0.62678000       0.03995000
H        3.65096000       4.26139000       0.02881000
H        5.13948000       4.63836000      -0.83163000
H        5.10954000       4.63596000       0.94319000
H        6.94529000       1.43782000       0.07288000
H        7.09319000       2.95817000       0.96263000
H        7.11224000       2.95742000      -0.81506000
22
Properties=species:S:1:pos:R:3 energy=-2056.68 pbc="F F F"
C        0.92453000       1.72821000       1.03027000
N        2.36757000       1.89968000       1.13466000
C        3.05717000       1.25860000       0.01177000
C        4.60109000       1.43110000       0.05238000
C        5.20464000       0.77774000       1.30870000
C        5.19671000       0.74121000      -1.19033000
C        4.98771000       2.92058000       0.01983000
H        0.43682000       2.22256000       1.87626000
H        0.64347000       0.67008000       1.05120000
H        0.53580000       2.18461000       0.11410000
H        2.68690000       1.49157000       2.01196000
H        2.68106000       1.68400000      -0.92789000
H        2.81654000       0.18745000       0.00049000
H        4.88798000       1.28668000       2.22488000
H        6.29969000       0.81266000       1.28215000
H        4.90781000      -0.27387000       1.38699000
H        4.80634000       1.18332000      -2.11375000
H        4.95503000      -0.32743000      -1.20291000
H        6.28813000       0.83580000      -1.21255000
H        4.56421000       3.41871000      -0.85929000
H        6.07592000       3.04372000      -0.02057000
H        4.63212000       3.45059000       0.90981000
13
Properties=species:S:1:pos:R:3 energy=-1482.1 pbc="F F F"
C        1.00000000       0.00000000       0.00000000
C        2.19016000       0.00000000       0.00000000
C        3.63416000       0.00000000       0.00000000
C        4.18457000       1.16362000      -0.77951000
C        4.93322000       0.71993000      -1.80418000
C        4.93193000      -0.72210000      -1.80237000
C        4.18464000      -1.16417000      -0.77936000
H       -0.06545000       0.00000000      -0.00629000
H        4.03813000       0.00014000       1.01799000
H        4.00707000       2.20045000      -0.53641000
H        5.45382000       1.32790000      -2.52750000
H        5.45219000      -1.33112000      -2.52566000
H        4.00619000      -2.20051000      -0.53506000
15
Properties=species:S:1:pos:R:3 energy=-1529.05 pbc="F F F"
C        0.90051000      -0.06410000      -0.06685000
N        2.34904000      -0.08275000       0.15745000
C        2.95833000      -1.41271000       0.09225000
C        3.09264000       1.08632000       0.04143000
C        4.42224000       1.25155000       0.04836000
C        5.02016000       2.53383000      -0.07794000
N        5.51565000       3.57684000      -0.18340000
H        0.45599000       0.87301000       0.28587000
H        0.40852000      -0.87779000       0.47689000
H        0.68290000      -0.17379000      -1.13426000
H        2.24360000      -2.19665000       0.36475000
H        3.79890000      -1.49132000       0.78974000
H        3.31767000      -1.61606000      -0.92199000
H        2.45602000       1.96729000      -0.05813000
H        5.09263000       0.40927000       0.15227000
17
Properties=species:S:1:pos:R:3 energy=-1660.33 pbc="F F F"
C        1.17710000      -0.63065000       0.60143000
N        2.18663000      -0.39361000      -0.43677000
C        2.72660000      -1.67800000      -0.89226000
C        1.59535000       0.38253000      -1.54558000
C        2.64039000       0.94287000      -2.51882000
C        1.98955000       1.76411000      -3.54680000
N        1.46923000       2.40557000      -4.36287000
H        0.80622000       0.31930000       1.00231000
H        1.61340000      -1.17479000       1.44667000
H        0.32313000      -1.20454000       0.22353000
H        3.13285000      -2.24553000      -0.04704000
H        3.56006000      -1.53355000      -1.58637000
H        1.96600000      -2.29463000      -1.38467000
H        1.04843000       1.23789000      -1.12437000
H        0.85317000      -0.22012000      -2.08728000
H        3.19004000       0.13366000      -3.01070000
H        3.37219000       1.54976000      -1.97279000
17
Properties=species:S:1:pos:R:3 energy=-1652.54 pbc="F F F"
C        0.72744000       0.94706000      -0.43252000
N        2.15975000       1.01398000      -0.19491000
C        2.80065000      -0.21566000       0.25528000
C        3.22302000      -1.00134000      -0.95019000
C        2.80636000      -2.24137000      -1.24062000
C        2.86358000       2.18628000      -0.25186000
N        2.43591000       3.37021000      -0.51412000
H        0.45722000       1.48913000      -1.34495000
H        0.18549000       1.38632000       0.41146000
H        0.37951000      -0.08419000      -0.55834000
H        2.11873000      -0.79239000       0.89213000
H        3.68257000       0.00262000       0.86931000
H        3.92522000      -0.51205000      -1.62179000
H        2.10811000      -2.77604000      -0.60441000
H        3.16036000      -2.74848000      -2.13345000
H        3.93919000       2.06041000      -0.03846000
H        1.43205000       3.34692000      -0.68972000
17
Properties=species:S:1:pos:R:3 energy=-1663.07 pbc="F F F"
C        1.02162000      -0.19164000       0.01365000
N        2.46442000      -0.01473000       0.00360000
C        2.96070000       1.38568000       0.00000000
C        2.48158000       2.13865000      -1.25766000
C        2.48180000       2.14064000       1.25565000
C        4.40470000       1.38568000       0.00000000
N        5.55571000       1.38568000       0.00000000
H        0.79835000      -1.26438000       0.03275000
H        0.54536000       0.21852000      -0.88062000
H        0.55758000       0.23850000       0.90452000
H        2.85558000      -0.50674000      -0.80119000
H        2.76300000       1.60603000      -2.17429000
H        2.93164000       3.13760000      -1.31594000
H        1.39533000       2.27694000      -1.26698000
H        2.75495000       1.60418000       2.17252000
H        1.39689000       2.28897000       1.26055000
H        2.93988000       3.13572000       1.31770000
19
Properties=species:S:1:pos:R:3 energy=-1784.7 pbc="F F F"
C        0.93446000       1.08500000      -1.20820000
N        2.38913000       1.01526000      -1.18186000
C        2.91461000       1.59538000       0.05108000
C        4.40799000       1.48499000       0.04003000
C        5.24461000       2.53116000       0.13929000
C        6.73353000       2.42247000       0.12816000
N        7.26382000       3.22382000      -0.96385000
H        0.56570000       0.63571000      -2.13518000
H        0.58149000       2.12069000      -1.17281000
H        0.49523000       0.52803000      -0.37472000
H        2.76066000       1.54645000      -1.96913000
H        2.53596000       1.04573000       0.92073000
H        2.60021000       2.64136000       0.14962000
H        4.80860000       0.47793000      -0.05237000
H        4.84199000       3.53716000       0.23924000
H        7.06366000       1.38347000       0.01774000
H        7.12834000       2.79698000       1.07796000
H        6.93641000       2.82713000      -1.84441000
H        8.27798000       3.13191000      -0.97735000
21
Properties=species:S:1:pos:R:3 energy=-1929.49 pbc="F F F"
C        2.22706000      -0.02693000      -1.76222000
N        3.37641000       0.83659000      -1.52599000
C        3.93642000       0.60285000      -0.18201000
C        5.19207000       1.48749000       0.09533000
C        5.55363000       1.41186000       1.58449000
C        6.38609000       1.00666000      -0.74757000
N        4.91318000       2.89758000      -0.25048000
H        1.81336000       0.18076000      -2.75404000
H        1.43533000       0.14403000      -1.02528000
H        2.51548000      -1.08292000      -1.74000000
H        3.06494000       1.80940000      -1.54900000
H        4.20855000      -0.45450000      -0.06991000
H        3.16463000       0.82633000       0.56645000
H        4.73386000       1.77797000       2.21338000
H        6.44149000       2.01269000       1.81341000
H        5.76629000       0.37945000       1.88440000
H        6.18053000       1.07343000      -1.82178000
H        6.62913000      -0.03762000      -0.52114000
H        7.28268000       1.60409000      -0.54544000
H        4.78316000       2.94573000      -1.26244000
H        5.74187000       3.45965000      -0.05936000
13
Properties=species:S:1:pos:R:3 energy=-1355.35 pbc="F F F"
C        1.01581000      -0.02646000       0.04081000
N        2.47157000       0.01085000       0.01892000
C        2.96070000       1.38568000       0.00000000
C        4.40470000       1.38568000       0.00000000
C        5.59486000       1.38568000       0.00000000
C        7.12898000       1.38199000       0.00074000
N        8.29015000       1.38537000      -0.00499000
H        0.67836000      -1.06741000       0.05796000
H        0.58790000       0.45142000      -0.84652000
H        0.62017000       0.46216000       0.93713000
H        2.80587000      -0.47373000      -0.81337000
H        2.59558000       1.92608000       0.88112000
H        2.58807000       1.90973000      -0.88794000
17
Properties=species:S:1:pos:R:3 energy=-1615.47 pbc="F F F"
C        1.24170000       0.06806000       0.48329000
N        2.48562000      -0.10478000      -0.27863000
C        2.57950000      -1.49267000      -0.78622000
C        1.53827000      -1.85815000      -1.80952000
C        0.71549000      -2.91191000      -1.71732000
N        2.73682000       0.89156000      -1.17526000
C        3.97636000       1.25478000      -1.17750000
H        1.26072000       1.02961000       1.00855000
H        1.13197000      -0.70801000       1.24864000
H        0.35723000       0.05949000      -0.16308000
H        2.55779000      -2.18949000       0.06131000
H        3.56634000      -1.62723000      -1.24725000
H        1.46908000      -1.20163000      -2.67430000
H        0.74830000      -3.59018000      -0.87051000
H       -0.01638000      -3.11150000      -2.49413000
H        4.30765000       2.05323000      -1.85940000
H        4.74526000       0.81068000      -0.52064000
17
Properties=species:S:1:pos:R:3 energy=-1656.1 pbc="F F F"
C        1.15420000       1.15387000       1.81530000
N        1.76939000       2.38081000       1.35962000
C        3.01094000       2.39605000       0.75403000
C        3.47627000       3.66311000       0.09163000
C        3.00121000       4.86931000       0.43075000
N        3.71436000       1.30924000       0.76833000
C        5.04210000       1.27279000       0.18136000
H        0.20431000       1.38148000       2.30834000
H        1.79133000       0.63769000       2.54026000
H        0.94998000       0.48569000       0.97302000
H        1.11258000       3.07286000       1.02123000
H        4.23827000       3.57645000      -0.67248000
H        2.27226000       5.00681000       1.22152000
H        3.37242000       5.76130000      -0.06317000
H        5.51758000       0.32120000       0.43983000
H        5.68704000       2.06732000       0.57088000
H        4.99599000       1.32753000      -0.91083000
19
Properties=species:S:1:pos:R:3 energy=-1769.87 pbc="F F F"
C        1.22301000       0.24377000       0.54924000
N        2.56928000       0.28384000      -0.00763000
C        3.19130000       1.59672000       0.23073000
C        4.60287000       1.65826000      -0.38446000
N        5.18275000       2.99496000      -0.18353000
C        6.21063000       3.04137000       0.85362000
C        6.57846000       3.07425000      -0.60610000
H        0.78521000      -0.74347000       0.36972000
H        0.57242000       0.98956000       0.07948000
H        1.23485000       0.40767000       1.63043000
H        2.51715000       0.11877000      -1.01312000
H        3.25950000       1.78022000       1.30961000
H        2.56968000       2.38612000      -0.20944000
H        4.52874000       1.47110000      -1.46387000
H        5.22145000       0.85315000       0.03583000
H        6.42671000       2.14572000       1.42272000
H        6.27392000       3.96640000       1.41324000
H        6.88545000       4.02164000      -1.03332000
H        7.03731000       2.19756000      -1.04705000
19
Properties=species:S:1:pos:R:3 energy=-1790.76 pbc="F F F"
C        1.08144000      -0.11047000      -0.03565000
N        2.51500000       0.05726000      -0.19846000
C        3.04580000       1.23737000      -0.12154000
C        2.19953000       2.48061000       0.12661000
N        4.42670000       1.38292000      -0.23714000
C        5.25460000       0.19812000      -0.44607000
C        5.12859000       2.56640000       0.23674000
H        0.85805000      -1.17859000       0.05230000
H        0.53722000       0.26510000      -0.90762000
H        0.70865000       0.36931000       0.87498000
H        1.25270000       2.42635000      -0.41590000
H        2.70572000       3.38671000      -0.21231000
H        1.99802000       2.56485000       1.19833000
H        4.82069000      -0.46218000      -1.20487000
H        5.36413000      -0.35946000       0.48985000
H        6.25317000       0.47013000      -0.80529000
H        4.79774000       2.83505000       1.24534000
H        4.94863000       3.41025000      -0.43623000
H        6.21179000       2.41363000       0.28003000
19
Properties=species:S:1:pos:R:3 energy=-1781.97 pbc="F F F"
C        2.88012000      -0.75376000       1.38210000
N        2.60063000      -0.13381000       0.09108000
C        3.02698000       1.28037000       0.05721000
C        4.57392000       1.48735000       0.02520000
N        5.18254000       0.58612000      -0.96540000
C        4.92069000       2.93975000      -0.19593000
C        5.70564000       3.45653000      -1.15264000
H        2.48056000      -1.77325000       1.38704000
H        2.40679000      -0.20548000       2.20368000
H        3.95527000      -0.82892000       1.57214000
H        1.59305000      -0.16577000      -0.06842000
H        2.58548000       1.83201000       0.89674000
H        2.60023000       1.71672000      -0.85580000
H        4.98015000       1.20937000       1.00561000
H        4.79181000       0.82450000      -1.87663000
H        4.77563000      -0.33700000      -0.78004000
H        4.49075000       3.62994000       0.52771000
H        6.19511000       2.83197000      -1.89277000
H        5.89384000       4.52458000      -1.20042000
21
Properties=species:S:1:pos:R:3 energy=-1914.18 pbc="F F F"
C        2.07555000      -1.03916000      -0.15662000
N        3.23382000      -0.23119000       0.20252000
C        2.94533000       1.20000000       0.02736000
C        4.15347000       2.06101000       0.46291000
N        4.00605000       3.50318000       0.17402000
C        2.90052000       4.10127000       0.92456000
C        5.25396000       4.19981000       0.49609000
H        2.31839000      -2.09920000      -0.03295000
H        1.78014000      -0.88014000      -1.19862000
H        1.22369000      -0.81932000       0.49567000
H        4.01702000      -0.48614000      -0.39958000
H        2.07123000       1.46366000       0.63239000
H        2.71074000       1.40654000      -1.02375000
H        5.03424000       1.69235000      -0.08151000
H        4.35020000       1.90001000       1.53172000
H        1.93718000       3.69661000       0.59827000
H        2.84871000       5.18088000       0.73892000
H        2.99971000       3.94450000       2.00439000
H        6.08581000       3.79770000      -0.09274000
H        5.51136000       4.11755000       1.55918000
H        5.17877000       5.26365000       0.24158000
14
Properties=species:S:1:pos:R:3 energy=-1366.13 pbc="F F F"
C        1.54375000       0.08854000       0.40399000
N        2.81278000      -0.22272000      -0.27897000
C        2.86058000      -1.67973000      -0.57656000
C        3.05377000      -2.51808000       0.62387000
N        3.19983000      -3.18657000       1.56211000
N        3.05566000       0.57569000      -1.35850000
C        4.16839000       1.22367000      -1.24411000
H        1.51669000       1.15090000       0.67222000
H        1.43567000      -0.47215000       1.33810000
H        0.67977000      -0.11867000      -0.23780000
H        3.71175000      -1.86844000      -1.24378000
H        1.96319000      -1.99074000      -1.12546000
H        4.48539000       1.90636000      -2.04785000
H        4.84137000       1.13423000      -0.37281000
17
Properties=species:S:1:pos:R:3 energy=-1638.54 pbc="F F F"
C        1.01604000       0.69707000      -0.14657000
N        2.16105000       0.72554000       0.75651000
C        3.28933000       0.91024000       0.16375000
N        4.51543000       0.97261000       0.79053000
C        5.66827000       0.40989000       0.06706000
C        5.51200000       1.88869000       0.22181000
C        6.38839000       2.65214000       1.15146000
H        0.19473000       0.15685000       0.33443000
H        1.23484000       0.18408000      -1.08990000
H        0.67212000       1.71409000      -0.35950000
H        3.34975000       1.04117000      -0.93397000
H        5.43916000      -0.05591000      -0.88110000
H        6.33831000      -0.12902000       0.72271000
H        5.18143000       2.47885000      -0.62350000
H        6.67615000       2.06105000       2.02723000
H        5.87292000       3.55148000       1.50273000
H        7.30195000       2.96317000       0.63548000
19
Properties=species:S:1:pos:R:3 energy=-1771.21 pbc="F F F"
C        1.80340000      -0.75916000       0.24630000
N        3.16732000      -0.56365000      -0.26513000
C        3.37807000      -1.49652000      -1.38251000
N        3.46119000       0.73163000      -0.55383000
C        4.58902000       1.17261000      -0.07577000
C        5.56149000       0.35880000       0.74719000
C        4.98270000       2.59216000      -0.39782000
H        1.63798000      -0.12390000       1.12364000
H        1.64887000      -1.79452000       0.56894000
H        1.04793000      -0.50409000      -0.50546000
H        3.22788000      -2.53300000      -1.06143000
H        4.40860000      -1.42261000      -1.74703000
H        2.70557000      -1.28223000      -2.22067000
H        6.07735000      -0.35338000       0.09750000
H        5.03900000      -0.17780000       1.54328000
H        6.30519000       1.01496000       1.20774000
H        4.19813000       3.09216000      -0.97237000
H        5.90617000       2.58510000      -0.98314000
H        5.14934000       3.14238000       0.53215000
14
Properties=species:S:1:pos:R:3 energy=-1398.8 pbc="F F F"
C        1.03307000      -0.29037000      -0.33972000
N        2.30761000       0.04234000       0.25070000
C        2.95565000       1.24541000       0.06749000
N        2.57200000       2.44881000      -0.12604000
C        1.16166000       2.77734000      -0.11628000
C        4.41995000       1.19404000       0.10125000
N        5.57645000       1.07056000       0.13119000
H        0.85319000      -1.36556000      -0.23962000
H        1.01768000      -0.04554000      -1.40607000
H        0.21267000       0.22262000       0.16792000
H        2.93180000      -0.76019000       0.30625000
H        1.05129000       3.86638000      -0.09355000
H        0.65622000       2.39032000       0.77397000
H        0.66195000       2.42147000      -1.02194000
17
Properties=species:S:1:pos:R:3 energy=-1625.21 pbc="F F F"
C        2.07838000      -0.00193000       2.49604000
N        2.90045000       0.02915000       1.50001000
N        3.84952000       0.99008000       1.60686000
C        4.82259000       1.01990000       0.51618000
C        5.90535000       2.07709000       0.83387000
C        6.93946000       1.03246000       0.35683000
C        5.91147000      -0.05115000       0.75617000
H        1.26364000      -0.74268000       2.50332000
H        2.14103000       0.67639000       3.36467000
H        3.43924000       1.90704000       1.79888000
H        4.41635000       1.06954000      -0.49966000
H        6.02203000       2.34502000       1.89135000
H        5.85869000       2.99453000       0.24075000
H        7.14460000       1.07241000      -0.71941000
H        7.88667000       1.01615000       0.90136000
H        5.87230000      -0.92339000       0.09814000
H        6.03020000      -0.39373000       1.79167000
15
Properties=species:S:1:pos:R:3 energy=-1493.75 pbc="F F F"
C        4.48568000      -1.89353000      -0.96026000
N        3.98025000      -0.81869000      -0.45622000
N        4.91104000       0.21465000      -0.47922000
C        4.40989000       1.29074000       0.02747000
C        5.27118000       2.48879000       0.08704000
C        5.48867000       3.31778000      -1.15520000
C        4.66040000       3.86391000      -0.02962000
H        3.87875000      -2.80980000      -1.01829000
H        5.51747000      -1.95034000      -1.34650000
H        3.38170000       1.35929000       0.42276000
H        6.11868000       2.38666000       0.75816000
H        4.98265000       3.01828000      -2.06643000
H        6.47624000       3.73487000      -1.31505000
H        5.08445000       4.65850000       0.57397000
H        3.59096000       3.94986000      -0.18621000
19
Properties=species:S:1:pos:R:3 energy=-1777.79 pbc="F F F"
C        2.38521000      -0.64333000      -1.42922000
N        3.32876000      -0.14211000      -0.43576000
N        3.81955000       1.09596000      -0.67982000
C        4.70838000       1.47658000       0.18215000
C        5.35356000       2.83683000       0.06329000
C        5.00541000       3.66176000       1.29562000
C        6.85996000       2.66599000      -0.08204000
H        2.07811000      -1.66026000      -1.16828000
H        2.84627000      -0.67461000      -2.42130000
H        1.49167000      -0.01294000      -1.47310000
H        2.88954000      -0.19663000       0.48642000
H        5.02881000       0.83787000       1.02642000
H        4.95978000       3.33874000      -0.82830000
H        5.38118000       3.19218000       2.21181000
H        3.91945000       3.76286000       1.40121000
H        5.43463000       4.66672000       1.22639000
H        7.29258000       2.16433000       0.79085000
H        7.35323000       3.63664000      -0.19674000
H        7.09856000       2.05753000      -0.96117000
17
Properties=species:S:1:pos:R:3 energy=-1785.13 pbc="F F F"
C        2.98247000      -1.22555000      -0.59912000
C        2.44306000       0.00739000       0.11420000
C        3.41358000       1.19336000       0.06665000
C        2.88303000       2.37739000       0.83810000
C        2.76712000       3.44057000       0.02653000
C        3.19572000       3.07682000      -1.29962000
C        3.57541000       1.79129000      -1.30994000
H        2.28468000      -2.06101000      -0.48411000
H        3.94662000      -1.53003000      -0.17998000
H        3.11247000      -1.04489000      -1.67015000
H        2.24517000      -0.25785000       1.16077000
H        1.47531000       0.27866000      -0.32783000
H        4.39287000       0.90396000       0.46612000
H        2.64232000       2.36444000       1.89070000
H        2.41787000       4.42315000       0.30456000
H        3.20947000       3.75446000      -2.13989000
H        3.95498000       1.26117000      -2.17057000
14
Properties=species:S:1:pos:R:3 energy=-1497.17 pbc="F F F"
N       -0.05404000       0.02564000      -1.30312000
C        0.02297000      -1.09089000      -0.31321000
C        1.26362000      -0.65310000       0.43797000
C        1.22901000       0.69471000       0.46717000
C       -0.03271000       1.10130000      -0.26524000
C       -1.23318000       0.63125000       0.52545000
C       -1.19864000      -0.71745000       0.49617000
H        0.80842000       0.05973000      -1.84041000
H        0.03588000      -2.07494000      -0.78058000
H        1.97516000      -1.30160000       0.92084000
H        1.90718000       1.35710000       0.97846000
H       -0.07074000       2.10423000      -0.68964000
H       -1.93560000       1.25773000       1.04809000
H       -1.86795000      -1.40135000       0.99051000
17
Properties=species:S:1:pos:R:3 energy=-1657.96 pbc="F F F"
N        1.45795000      -0.38886000      -0.39378000
C        2.79089000      -0.00423000       0.06902000
C        3.67706000      -1.06995000       0.65563000
C        4.02337000      -0.45905000      -0.66685000
N        4.98241000       0.66190000      -0.77143000
C        4.21396000       1.87272000      -0.42750000
C        3.03708000       1.43264000       0.45532000
H        1.15793000       0.20746000      -1.16402000
H        0.76892000      -0.27123000       0.34849000
H        3.31810000      -2.09357000       0.65166000
H        4.28275000      -0.82883000       1.51967000
H        3.90101000      -1.06576000      -1.55817000
H        5.72675000       0.53362000      -0.08560000
H        4.83741000       2.62543000       0.06494000
H        3.83199000       2.31121000      -1.35685000
H        3.30354000       1.49680000       1.51691000
H        2.16406000       2.07117000       0.28165000
16
Properties=species:S:1:pos:R:3 energy=-1619.78 pbc="F F F"
N        1.05708000      -0.28455000      -0.22530000
C        2.33328000       0.27152000       0.22697000
C        3.57496000      -0.45556000      -0.46653000
C        4.26797000       0.94800000      -0.14108000
C        2.86750000       1.40725000      -0.76083000
C        2.89483000       0.83489000      -2.14691000
C        3.36607000      -0.40629000      -1.95078000
H        0.25418000       0.30687000      -0.02250000
H        0.84919000      -1.20458000       0.15648000
H        2.39103000       0.46128000       1.30417000
H        3.98631000      -1.36516000      -0.03237000
H        4.44896000       1.18361000       0.91414000
H        5.16717000       1.19890000      -0.71406000
H        2.54240000       2.43844000      -0.63390000
H        2.58269000       1.30509000      -3.06375000
H        3.53047000      -1.19078000      -2.66920000
18
Properties=species:S:1:pos:R:3 energy=-1785.36 pbc="F F F"
N        1.09093000      -0.02402000      -0.01494000
C        2.55102000      -0.01606000       0.03144000
C        3.15336000       1.02211000      -0.96260000
C        2.74773000       0.03269000      -2.10051000
C        3.16496000      -1.00195000      -1.00806000
C        4.67012000      -0.75354000      -0.85994000
C        4.66150000       0.78419000      -0.82681000
H        0.66444000       0.76541000       0.46862000
H        0.67511000      -0.86124000       0.39121000
H        2.96051000      -0.03770000       1.04588000
H        2.77640000       2.04349000      -0.98268000
H        3.35405000       0.05637000      -3.01278000
H        1.69592000       0.03368000      -2.40650000
H        2.79925000      -2.02559000      -1.07341000
H        5.07176000      -1.18058000       0.06435000
H        5.24008000      -1.14135000      -1.70996000
H        5.22586000       1.21453000      -1.66015000
H        5.06002000       1.17574000       0.11449000
17
Properties=species:S:1:pos:R:3 energy=-1648.21 pbc="F F F"
N        1.07272000      -0.00479000       0.01548000
C        2.54295000      -0.00353000       0.05328000
C        3.17442000      -0.97510000      -0.99869000
C        4.68191000      -0.74990000      -0.85742000
C        4.67776000       0.78176000      -0.83630000
C        3.16829000       1.00191000      -0.96982000
N        2.72708000       0.02581000      -2.05358000
H        0.63673000       0.73065000       0.56261000
H        0.64668000      -0.88603000       0.28479000
H        2.95879000      -0.02566000       1.06483000
H        2.79254000      -1.99255000      -1.08747000
H        5.08111000      -1.17472000       0.06881000
H        5.24417000      -1.14841000      -1.70782000
H        5.23579000       1.20660000      -1.67619000
H        5.07503000       1.18350000       0.10049000
H        2.77969000       2.01838000      -1.03123000
H        3.28943000       0.04103000      -2.90086000
18
Properties=species:S:1:pos:R:3 energy=-1788.59 pbc="F F F"
N        0.74343000       0.00964000      -0.01445000
C        2.18783000       0.02492000       0.18830000
C        3.08578000      -0.84695000      -0.64469000
C        2.66366000      -1.47680000      -1.94270000
C        2.92798000      -0.38913000      -2.98812000
C        2.68179000       0.93137000      -2.25257000
C        3.09699000       0.64450000      -0.83665000
H        0.32348000       0.87559000       0.32111000
H        0.31275000      -0.74348000       0.52036000
H        2.48596000       0.15619000       1.22793000
H        3.94870000      -1.31313000      -0.18928000
H        3.24409000      -2.37821000      -2.16149000
H        1.60449000      -1.75249000      -1.92496000
H        3.97876000      -0.43751000      -3.30203000
H        2.30501000      -0.49934000      -3.88046000
H        3.27516000       1.73925000      -2.69119000
H        1.62689000       1.21830000      -2.30722000
H        3.96739000       1.19801000      -0.51219000
15
Properties=species:S:1:pos:R:3 energy=-1481.53 pbc="F F F"
N        0.98971000      -0.31745000      -0.21553000
C        2.31222000       0.13279000       0.24349000
C        3.50107000      -0.70921000      -0.39918000
N        4.30565000       0.59505000      -0.16952000
C        2.99120000       1.16120000      -0.76505000
C        3.02595000       0.56876000      -2.12823000
C        3.37159000      -0.69990000      -1.88001000
H        0.22923000       0.30833000       0.04392000
H        0.73189000      -1.24509000       0.11628000
H        2.37652000       0.35081000       1.31538000
H        3.87310000      -1.60715000       0.09298000
H        4.45515000       0.82807000       0.81002000
H        2.82834000       2.23337000      -0.65865000
H        2.81864000       1.04696000      -3.06862000
H        3.51672000      -1.51362000      -2.56801000
18
Properties=species:S:1:pos:R:3 energy=-1767.71 pbc="F F F"
N        0.80729000      -0.05162000      -0.56392000
C        2.20157000      -0.00923000      -0.08336000
C        3.21980000      -0.73031000      -0.94519000
C        3.18333000       0.76791000      -0.93863000
C        2.37833000      -0.01313000       1.45888000
C        1.52136000       0.80654000       2.39594000
C        1.41014000      -0.69012000       2.40093000
H        0.76659000      -0.01963000      -1.58035000
H        0.30764000       0.77284000      -0.23663000
H        2.87425000      -1.25063000      -1.83060000
H        4.04800000      -1.22320000      -0.44910000
H        3.99013000       1.29182000      -0.43858000
H        2.82286000       1.27194000      -1.82713000
H        3.42432000      -0.08914000       1.76443000
H        0.69401000       1.37307000       1.98781000
H        2.00879000       1.28285000       3.23868000
H        1.82238000      -1.23240000       3.24343000
H        0.51698000      -1.13870000       1.98143000
18
Properties=species:S:1:pos:R:3 energy=-1766.55 pbc="F F F"
N        0.98800000      -0.13159000       0.33333000
C        2.36990000       0.15949000      -0.03427000
C        2.95403000       1.17486000       0.97023000
C        4.22884000       0.29974000       0.97958000
C        3.31707000      -0.90352000       0.60150000
C        3.90300000      -1.88449000      -0.34723000
C        4.89174000      -2.69459000       0.04872000
H        0.61531000      -0.96787000      -0.11594000
H        0.33860000       0.62195000       0.11014000
H        2.54023000       0.39936000      -1.08949000
H        2.46057000       1.22355000       1.94868000
H        3.08839000       2.19189000       0.59253000
H        4.96114000       0.58750000       0.21449000
H        4.73776000       0.22478000       1.94479000
H        2.90078000      -1.40034000       1.49055000
H        3.51066000      -1.94639000      -1.35759000
H        5.29551000      -2.65688000       1.05662000
H        5.32166000      -3.42014000      -0.63517000
19
Properties=species:S:1:pos:R:3 energy=-1809.1 pbc="F F F"
N        1.03987000       0.01562000      -0.12911000
C        2.48952000       0.01535000       0.01811000
C        2.98112000       1.11407000       0.95327000
C        4.41642000       0.68728000       1.22857000
C        4.36295000      -0.83697000       1.34088000
C        3.04534000      -1.26974000       0.67739000
N        3.23472000      -2.37034000      -0.26728000
H        0.75283000      -0.74280000      -0.74386000
H        0.73570000       0.88388000      -0.56656000
H        2.94319000       0.15778000      -0.97185000
H        2.40742000       1.13111000       1.88835000
H        2.92759000       2.10818000       0.49853000
H        5.05635000       0.97035000       0.38349000
H        4.82668000       1.15602000       2.12769000
H        5.25019000      -1.28669000       0.88217000
H        4.35944000      -1.14194000       2.39432000
H        2.36074000      -1.61378000       1.46404000
H        3.86366000      -2.08019000      -1.01470000
H        2.34361000      -2.57808000      -0.71371000
14
Properties=species:S:1:pos:R:3 energy=-1561.96 pbc="F F F"
N        0.99917000       0.01600000       0.26448000
C        2.37314000       0.03391000      -0.00795000
C        3.07199000       1.24387000      -0.02492000
C        4.46072000       1.26473000      -0.17364000
C        5.17024000       0.06883000      -0.26190000
C        4.49047000      -1.14431000      -0.18195000
C        3.10109000      -1.15885000      -0.03312000
H        0.51546000       0.85360000      -0.04381000
H        0.53593000      -0.83075000      -0.04967000
H        2.53814000       2.18482000       0.07663000
H        4.98869000       2.21324000      -0.20428000
H        6.25095000       0.08231000      -0.37055000
H        5.04117000      -2.08049000      -0.21925000
H        2.59049000      -2.11312000       0.06171000
20
Properties=species:S:1:pos:R:3 energy=-1942.37 pbc="F F F"
N        0.99313000       0.02787000       0.10187000
C        2.45545000       0.01280000       0.02552000
C        2.94504000      -1.33579000      -0.51898000
C        2.60468000      -1.53791000      -1.99638000
C        3.10902000      -0.37914000      -2.85233000
C        2.61341000       0.96904000      -2.33575000
C        2.95286000       1.16497000      -0.85758000
H        0.68024000       0.90661000       0.51093000
H        0.67503000      -0.71145000       0.72783000
H        2.84766000       0.14884000       1.04014000
H        2.52716000      -2.16172000       0.06980000
H        4.03478000      -1.39108000      -0.39677000
H        3.05089000      -2.47469000      -2.34921000
H        1.51985000      -1.63958000      -2.11900000
H        4.20604000      -0.38372000      -2.85843000
H        2.78474000      -0.51850000      -3.88973000
H        3.06576000       1.77517000      -2.92470000
H        1.52905000       1.04178000      -2.48253000
H        4.04310000       1.24411000      -0.75314000
H        2.54059000       2.12015000      -0.51014000
17
Properties=species:S:1:pos:R:3 energy=-1744.57 pbc="F F F"
C        3.59609000      -1.05349000      -2.41402000
C        3.61329000      -0.57750000      -1.32333000
C        3.63416000       0.00000000       0.00000000
C        4.38898000       1.32240000       0.01365000
C        3.69674000       2.55144000      -0.63933000
C        4.30197000       3.40272000       0.49544000
C        4.33238000       2.11709000       1.34661000
H        3.58079000      -1.47936000      -3.39080000
H        4.11493000      -0.69597000       0.69755000
H        2.60858000       0.14239000       0.36091000
H        5.42662000       1.19894000      -0.33275000
H        2.60098000       2.51840000      -0.62451000
H        4.03131000       2.80427000      -1.64872000
H        5.29591000       3.80297000       0.26496000
H        3.67051000       4.20987000       0.87440000
H        5.19955000       2.00510000       2.00271000
H        3.41978000       1.95986000       1.93374000
19
Properties=species:S:1:pos:R:3 energy=-1805.58 pbc="F F F"
N        0.98629000      -0.01006000       0.12311000
C        2.45053000      -0.00272000       0.01574000
C        2.93517000      -1.35431000      -0.52010000
C        2.60792000      -1.51625000      -2.00493000
C        3.12174000      -0.32989000      -2.82131000
N        2.62407000       0.94915000      -2.31779000
C        2.96437000       1.13658000      -0.90359000
H        0.64848000       0.92319000       0.34562000
H        0.69398000      -0.63151000       0.87256000
H        2.85905000       0.15452000       1.02125000
H        2.49966000      -2.18206000       0.05199000
H        4.02276000      -1.42195000      -0.38587000
H        3.05945000      -2.44213000      -2.37972000
H        1.52391000      -1.61625000      -2.14028000
H        4.21889000      -0.32631000      -2.82398000
H        2.80240000      -0.44812000      -3.86276000
H        3.01527000       1.71034000      -2.86831000
H        4.05463000       1.21903000      -0.80064000
H        2.54877000       2.09391000      -0.56633000
19
Properties=species:S:1:pos:R:3 energy=-1900.44 pbc="F F F"
C        0.95899000       1.72984000       1.28493000
C        2.44465000       1.57094000       1.24505000
C        3.13809000       1.34651000       0.11893000
C        4.61502000       1.19016000       0.09269000
C        5.47624000       2.27576000       0.78705000
C        6.45207000       1.14336000       1.17504000
C        5.25754000       0.17031000       1.06694000
H        0.70052000       2.71265000       1.69076000
H        0.52000000       0.96389000       1.93147000
H        0.50542000       1.64003000       0.29274000
H        2.95233000       1.64840000       2.20336000
H        2.62253000       1.27032000      -0.83540000
H        4.94920000       1.01803000      -0.94163000
H        5.02150000       2.76916000       1.65351000
H        5.89129000       3.04279000       0.12704000
H        7.23660000       0.96298000       0.43115000
H        6.90953000       1.22723000       2.16384000
H        5.49135000      -0.80873000       0.63908000
H        4.73578000       0.02019000       2.01887000
17
Properties=species:S:1:pos:R:3 energy=-1667.02 pbc="F F F"
N        0.99435000       0.01681000       0.00824000
C        2.44756000      -0.00424000      -0.01158000
C        3.02598000      -1.26845000       0.64098000
C        3.30159000      -0.88815000       2.10256000
N        4.48201000      -1.54446000       2.64018000
C        3.47884000       0.58983000       2.01606000
C        2.99131000       1.07484000       0.86638000
H        0.63559000      -0.74625000      -0.56218000
H        0.66525000       0.87680000      -0.42679000
H        2.81297000       0.09625000      -1.03872000
H        3.95699000      -1.53807000       0.12117000
H        2.36695000      -2.14127000       0.56268000
H        2.43688000      -1.11431000       2.73676000
H        5.27975000      -1.34846000       2.03812000
H        4.34517000      -2.55269000       2.60419000
H        3.87866000       1.19227000       2.81996000
H        2.96253000       2.12520000       0.61357000
17
Properties=species:S:1:pos:R:3 energy=-1642.93 pbc="F F F"
N        0.92332000      -0.01237000      -0.33456000
C        2.36094000      -0.07906000      -0.01622000
C        3.27345000      -0.89509000      -0.90087000
N        2.69203000      -1.61144000      -2.05090000
C        3.34723000       0.61326000      -0.92680000
C        4.50193000       1.29050000      -0.32497000
C        5.76369000       1.22624000      -0.77110000
H        0.53001000       0.86444000       0.00722000
H        0.42232000      -0.75482000       0.15260000
H        2.58631000      -0.09474000       1.04820000
H        4.08964000      -1.42345000      -0.41383000
H        1.83706000      -1.11380000      -2.31871000
H        2.36215000      -2.52687000      -1.74896000
H        2.95166000       1.11624000      -1.80412000
H        4.29930000       1.91313000       0.54441000
H        6.01890000       0.63067000      -1.64268000
H        6.56150000       1.76870000      -0.27554000
15
Properties=species:S:1:pos:R:3 energy=-1489.33 pbc="F F F"
N        1.02501000      -0.10060000      -0.13654000
C        2.49698000      -0.03262000      -0.04270000
C        3.33017000      -0.74018000      -1.08611000
N        2.63867000      -1.48543000      -2.15696000
C        3.27217000       0.76954000      -1.06204000
C        4.42829000       1.50007000      -0.62386000
C        5.39439000       2.11372000      -0.26440000
H        0.60984000       0.70526000       0.33204000
H        0.68180000      -0.92105000       0.36253000
H        2.88357000      -0.04900000       0.97448000
H        4.25582000      -1.20225000      -0.75045000
H        1.70654000      -1.07300000      -2.26587000
H        2.45481000      -2.43801000      -1.84472000
H        2.70260000       1.24767000      -1.85313000
H        6.25472000       2.65947000       0.04824000
11
Properties=species:S:1:pos:R:3 energy=-1262.45 pbc="F F F"
N        1.01431000       0.05834000      -0.17282000
C        2.16948000       0.03280000      -0.08636000
C        3.60125000       0.00816000      -0.00026000
C        4.39244000      -0.73092000      -1.04979000
C        4.39621000       0.77694000      -1.03322000
C        5.57506000       1.47277000      -0.60551000
N        6.52803000       2.02500000      -0.24451000
H        3.99117000      -0.02781000       1.01280000
H        3.86028000      -1.22588000      -1.85599000
H        5.28387000      -1.26118000      -0.73005000
H        3.84609000       1.26996000      -1.82938000
16
Properties=species:S:1:pos:R:3 energy=-1675.41 pbc="F F F"
N        1.00000000       0.00000000       0.00000000
C        2.15101000       0.00000000       0.00000000
C        3.59501000       0.00000000       0.00000000
C        4.17781000       1.12560000       0.85121000
C        5.59434000       0.64932000       1.12572000
C        5.43028000      -0.83936000       1.39387000
C        4.18908000      -1.27487000       0.60962000
H        3.96730000       0.10391000      -1.02751000
H        3.62862000       1.24250000       1.79473000
H        4.16089000       2.09036000       0.33309000
H        6.22231000       0.80485000       0.24120000
H        6.05520000       1.17384000       1.96653000
H        6.32042000      -1.40457000       1.09955000
H        5.26827000      -1.01411000       2.46403000
H        4.45366000      -1.99116000      -0.17704000
H        3.48834000      -1.78618000       1.28188000
14
Properties=species:S:1:pos:R:3 energy=-1533.39 pbc="F F F"
N        1.00000000       0.00000000       0.00000000
C        2.15101000       0.00000000       0.00000000
C        3.59501000       0.00000000       0.00000000
C        4.14518000      -1.22123000      -0.75609000
C        4.49579000      -0.66830000      -2.10232000
C        4.49598000       0.66752000      -2.10253000
C        4.14542000       1.22112000      -0.75670000
H        3.95167000       0.00014000       1.03668000
H        3.42189000      -2.03967000      -0.83606000
H        5.05397000      -1.60427000      -0.27828000
H        4.73843000      -1.28536000      -2.95848000
H        4.73863000       1.28421000      -2.95890000
H        5.05397000       1.60405000      -0.27880000
H        3.42198000       2.03933000      -0.83673000
18
Properties=species:S:1:pos:R:3 energy=-1796.24 pbc="F F F"
N        2.40459000      -0.42613000       1.46861000
C        2.54258000       0.01039000       0.08807000
C        3.04368000       1.41156000       0.01247000
C        4.18613000       1.82668000      -0.55117000
C        4.37163000       3.30113000      -0.42050000
C        2.98478000       3.77838000       0.00341000
C        2.27911000       2.55995000       0.59773000
H        2.09894000      -1.39854000       1.47805000
H        1.66163000       0.10731000       1.91499000
H        1.57609000      -0.06412000      -0.42234000
H        3.23092000      -0.66841000      -0.42825000
H        4.91725000       1.17744000      -1.01469000
H        5.12595000       3.52359000       0.34092000
H        4.67448000       3.75972000      -1.36613000
H        2.43106000       4.13345000      -0.87598000
H        3.03394000       4.61276000       0.71071000
H        1.22325000       2.54412000       0.31068000
H        2.35248000       2.55658000       1.69021000
15
Properties=species:S:1:pos:R:3 energy=-1539.58 pbc="F F F"
N        1.00000000       0.00000000       0.00000000
C        2.15101000       0.00000000       0.00000000
C        3.59501000       0.00000000       0.00000000
C        4.15941000       1.14698000       0.82824000
C        5.56803000       0.68269000       1.13396000
C        5.43111000      -0.82171000       1.28735000
N        4.17306000      -1.19868000       0.64225000
H        3.98040000       0.06848000      -1.02502000
H        3.60087000       1.28691000       1.76326000
H        4.15081000       2.09903000       0.28708000
H        6.22678000       0.91378000       0.28875000
H        5.97689000       1.16019000       2.02884000
H        6.28513000      -1.34549000       0.84380000
H        5.37900000      -1.09808000       2.34442000
H        4.30662000      -1.94265000      -0.04038000
17
Properties=species:S:1:pos:R:3 energy=-1661.05 pbc="F F F"
N        2.40735000      -0.43242000       1.49070000
C        2.48999000       0.02827000       0.11399000
C        3.03340000       1.40910000       0.02908000
C        4.17444000       1.80392000      -0.54400000
C        4.34878000       3.27014000      -0.40448000
N        3.06787000       3.77127000       0.12702000
C        2.32101000       2.58617000       0.59819000
H        2.10576000      -1.40501000       1.49854000
H        1.68680000       0.08967000       1.98444000
H        1.49813000      -0.01006000      -0.35003000
H        3.12963000      -0.66282000      -0.44706000
H        4.89692000       1.15450000      -1.01577000
H        5.16303000       3.49899000       0.29037000
H        4.56838000       3.73772000      -1.36942000
H        2.54803000       4.17349000      -0.65169000
H        1.28369000       2.63634000       0.25116000
H        2.32601000       2.55923000       1.69260000
17
Properties=species:S:1:pos:R:3 energy=-1761.54 pbc="F F F"
C        1.42154000      -0.46517000       0.03221000
C        2.73954000      -0.23569000       0.06245000
C        3.30468000       1.09095000       0.01906000
C        4.62570000       1.32971000       0.04180000
C        5.24781000       2.65700000       0.00956000
C        6.43024000       2.87797000      -0.89724000
C        5.10723000       3.50419000      -1.22808000
H        1.03848000      -1.48008000       0.06654000
H        0.69586000       0.33969000      -0.02759000
H        3.42259000      -1.08027000       0.12166000
H        2.61643000       1.93176000      -0.03735000
H        5.31240000       0.48734000       0.10577000
H        5.25910000       3.17075000       0.96651000
H        6.77316000       2.06423000      -1.52628000
H        7.22420000       3.52616000      -0.54404000
H        5.00360000       4.57525000      -1.09689000
H        4.55921000       3.10963000      -2.07651000
19
Properties=species:S:1:pos:R:3 energy=-1786.7 pbc="F F F"
N        1.29283000       2.84579000      -1.58678000
C        2.64753000       2.95321000      -1.05442000
C        3.24052000       1.56966000      -0.77890000
C        4.61909000       1.67559000      -0.19152000
C        5.64201000       0.60530000      -0.47062000
C        5.80013000       1.97038000      -1.07759000
N        6.85501000       2.85195000      -0.59191000
H        0.91519000       3.78002000      -1.74049000
H        0.68707000       2.40283000      -0.89723000
H        2.63137000       3.54986000      -0.13513000
H        3.27250000       3.49031000      -1.77740000
H        3.26018000       0.98453000      -1.70590000
H        2.60485000       1.02419000      -0.07090000
H        4.60038000       2.09474000       0.80878000
H        5.37916000      -0.20978000      -1.13714000
H        6.30915000       0.31191000       0.33077000
H        5.61788000       2.04221000      -2.14812000
H        7.03296000       2.71526000       0.40139000
H        6.58806000       3.83005000      -0.70037000
20
Properties=species:S:1:pos:R:3 energy=-1914.95 pbc="F F F"
N        1.13857000       2.00315000       0.34093000
C        2.52116000       1.94963000      -0.11812000
C        3.38255000       1.17797000       0.87963000
C        4.82232000       1.10334000       0.38787000
C        5.67077000       2.40300000       0.45752000
C        6.86829000       1.51433000       0.84728000
C        5.84421000       0.49272000       1.38338000
H        0.58838000       2.56420000      -0.30899000
H        1.09344000       2.48130000       1.23959000
H        2.90226000       2.96895000      -0.24437000
H        2.55569000       1.46514000      -1.10009000
H        2.98866000       0.16110000       1.00054000
H        3.33945000       1.65847000       1.86505000
H        4.88431000       0.62037000      -0.59867000
H        5.36821000       3.10176000       1.24651000
H        5.77568000       2.95168000      -0.48202000
H        7.44623000       1.15090000      -0.01032000
H        7.55311000       1.93525000       1.58744000
H        6.09585000      -0.55834000       1.22029000
H        5.59470000       0.63866000       2.44109000
16
Properties=species:S:1:pos:R:3 energy=-1655.49 pbc="F F F"
N        0.92476000       0.08832000      -0.13979000
C        2.08254000       0.02666000      -0.19522000
C        3.54589000      -0.05225000      -0.26563000
C        4.18901000       1.22222000       0.27786000
C        5.68655000       1.15955000       0.19353000
C        6.52787000       1.92064000       1.18436000
C        6.48071000       0.41834000       1.23703000
H        3.85809000      -0.21503000      -1.30389000
H        3.89545000      -0.91965000       0.30664000
H        3.86774000       1.38743000       1.31459000
H        3.84312000       2.09082000      -0.29677000
H        6.03977000       1.12603000      -0.83221000
H        6.03533000       2.47094000       1.97846000
H        7.43901000       2.38735000       0.82624000
H        7.36092000      -0.12698000       0.91422000
H        5.95832000      -0.04042000       2.06910000
18
Properties=species:S:1:pos:R:3 energy=-1771.89 pbc="F F F"
N        1.48844000      -0.04057000      -0.94569000
C        2.61181000      -0.04981000      -0.02114000
C        3.12153000       1.34134000       0.15492000
C        4.38042000       1.73054000      -0.10854000
C        4.90500000       3.08742000       0.06778000
C        5.72277000       3.69136000      -1.04428000
C        4.34140000       4.20728000      -0.76666000
H        1.16642000      -0.99650000      -1.08510000
H        1.81788000       0.28105000      -1.85528000
H        3.39049000      -0.72207000      -0.39480000
H        2.27873000      -0.43504000       0.94837000
H        2.40811000       2.07253000       0.52948000
H        5.08997000       0.98946000      -0.47226000
H        5.20229000       3.32584000       1.08412000
H        5.87398000       3.12582000      -1.95669000
H        6.56313000       4.31887000      -0.77027000
H        4.24479000       5.18230000      -0.30194000
H        3.56172000       3.98495000      -1.48692000
16
Properties=species:S:1:pos:R:3 energy=-1619.05 pbc="F F F"
N        1.01452000      -0.01944000       0.02415000
C        2.47000000       0.00000000       0.00000000
C        2.95202000       1.36117000       0.00000000
C        3.34930000       2.48307000       0.00000000
C        4.02220000       3.74835000       0.04389000
C        3.88170000       4.68853000      -1.12206000
C        3.23344000       5.01840000       0.19199000
H        0.69306000      -0.97878000      -0.08102000
H        0.66653000       0.49256000      -0.78483000
H        2.82410000      -0.52982000      -0.89069000
H        2.84877000      -0.54111000       0.87299000
H        4.99486000       3.72623000       0.52909000
H        3.23836000       4.40748000      -1.94788000
H        4.76026000       5.25237000      -1.41743000
H        3.67016000       5.80981000       0.78966000
H        2.15259000       4.95370000       0.25813000
17
Properties=species:S:1:pos:R:3 energy=-1639.2 pbc="F F F"
N        1.71819000      -0.21298000      -1.24446000
C        2.65292000      -0.11335000      -0.13456000
C        3.09674000       1.30361000       0.01286000
C        4.37762000       1.70725000      -0.04284000
C        4.83778000       3.08597000       0.10481000
C        5.03087000       3.65007000       1.48796000
N        6.17279000       3.27626000       0.66315000
H        1.42134000      -1.18247000      -1.33918000
H        2.21206000       0.01305000      -2.10707000
H        3.49853000      -0.78964000      -0.30204000
H        2.15429000      -0.42971000       0.78801000
H        2.31399000       2.03690000       0.18971000
H        5.15260000       0.96322000      -0.21731000
H        4.55218000       3.76505000      -0.69250000
H        4.83733000       3.01734000       2.34535000
H        4.86486000       4.70868000       1.64267000
H        6.61500000       4.10089000       0.25540000
15
Properties=species:S:1:pos:R:3 energy=-1603.11 pbc="F F F"
C        0.96752000       0.43788000      -1.05741000
C        2.13740000       0.28143000      -0.84314000
C        3.52184000       0.09061000      -0.58984000
C        4.35348000       1.12637000      -0.40449000
C        5.78949000       1.02472000      -0.12820000
C        6.71237000       0.53705000      -1.21421000
C        6.72685000       1.98355000      -0.81470000
H       -0.07135000       0.57774000      -1.24775000
H        3.89712000      -0.92738000      -0.55088000
H        3.94440000       2.13536000      -0.44192000
H        6.03240000       0.74877000       0.89400000
H        6.29879000       0.28560000      -2.18459000
H        7.55496000      -0.07942000      -0.92212000
H        7.57985000       2.34653000      -0.25243000
H        6.32465000       2.70446000      -1.51771000
13
Properties=species:S:1:pos:R:3 energy=-1442.81 pbc="F F F"
C        0.88639000       0.02475000      -0.05570000
C        2.08632000       0.01928000      -0.04837000
C        3.61847000       0.00872000      -0.03252000
C        4.81872000      -0.00563000      -0.00982000
C        6.25131000      -0.02931000       0.03359000
C        6.99689000      -0.74948000      -1.05938000
C        7.02454000       0.75007000      -0.99720000
H       -0.17858000       0.02846000      -0.06024000
H        6.68347000      -0.07819000       1.02935000
H        6.43261000      -1.21287000      -1.86092000
H        7.89680000      -1.28798000      -0.78535000
H        7.94425000       1.22935000      -0.68186000
H        6.47935000       1.29909000      -1.75656000
20
Properties=species:S:1:pos:R:3 energy=-1917.65 pbc="F F F"
N        0.30550000       1.48065000       0.11484000
C        1.68371000       1.01994000       0.22922000
C        2.64178000       2.20985000       0.21290000
C        4.09692000       1.75138000       0.33872000
C        5.05545000       2.94302000       0.32725000
C        6.48390000       2.49621000       0.45590000
C        7.42760000       2.72521000      -0.46518000
H       -0.31784000       0.67529000       0.07888000
H        0.18083000       1.97696000      -0.76649000
H        1.90957000       0.33961000      -0.59901000
H        1.79632000       0.45868000       1.16285000
H        2.40091000       2.89161000       1.03859000
H        2.51718000       2.77535000      -0.71939000
H        4.33925000       1.07192000      -0.48793000
H        4.22180000       1.18273000       1.26870000
H        4.82543000       3.61382000       1.16395000
H        4.91348000       3.52258000      -0.59381000
H        6.75331000       1.96483000       1.36662000
H        7.21084000       3.25740000      -1.38621000
H        8.44688000       2.38289000      -0.31253000
21
Properties=species:S:1:pos:R:3 energy=-1933.09 pbc="F F F"
N        0.81003000       1.17550000       1.46018000
C        2.07967000       0.90357000       0.79570000
C        2.92489000       2.17379000       0.72897000
C        4.25792000       1.91536000       0.02327000
C        5.10751000       3.18682000      -0.04359000
C        6.43825000       2.92767000      -0.74835000
N        7.23406000       4.14796000      -0.78977000
H        0.28314000       0.30767000       1.55233000
H        0.98311000       1.50635000       2.40903000
H        1.87973000       0.52904000      -0.21402000
H        2.61486000       0.11942000       1.34285000
H        3.11591000       2.54722000       1.74256000
H        2.37498000       2.95791000       0.19412000
H        4.07094000       1.54520000      -0.99236000
H        4.81075000       1.13216000       0.55651000
H        5.29162000       3.55654000       0.97339000
H        4.55091000       3.96922000      -0.57523000
H        6.26301000       2.57294000      -1.76940000
H        7.00073000       2.15266000      -0.21711000
H        6.72896000       4.87066000      -1.30119000
H        8.09168000       3.97524000      -1.31249000
19
Properties=species:S:1:pos:R:3 energy=-1790.38 pbc="F F F"
N        3.23623000       0.99126000       2.53168000
C        2.80807000       1.81156000       1.39636000
C        3.33551000       1.28147000       0.05381000
C        4.84913000       1.30476000      -0.09032000
C        5.54117000       0.16395000      -0.26259000
C        5.54134000       2.64072000      -0.03806000
N        5.06371000       3.51672000      -1.09770000
H        2.97840000       1.45840000       3.39978000
H        4.25386000       0.92298000       2.52910000
H        3.12680000       2.84789000       1.55549000
H        1.71270000       1.81505000       1.37096000
H        2.89243000       1.87398000      -0.75495000
H        2.95698000       0.26080000      -0.09104000
H        5.04213000      -0.79948000      -0.29836000
H        6.62182000       0.16063000      -0.37205000
H        6.62705000       2.52502000      -0.13800000
H        5.36733000       3.11416000       0.93387000
H        5.26756000       3.07622000      -1.99472000
H        5.60484000       4.37994000      -1.08180000
17
Properties=species:S:1:pos:R:3 energy=-1636.51 pbc="F F F"
N        0.95364000      -0.00305000      -0.01818000
C        2.41671000       0.00598000       0.01701000
C        2.97739000       1.43282000       0.00000000
C        4.42139000       1.43282000       0.00000000
C        5.61155000       1.43282000       0.00000000
C        7.05555000       1.43282000       0.00000000
N        7.55654000       2.79887000       0.02135000
H        0.62571000      -0.96846000      -0.02400000
H        0.63000000       0.41153000      -0.89151000
H        2.79707000      -0.56159000      -0.84094000
H        2.75045000      -0.51570000       0.92182000
H        2.60388000       1.98393000       0.87159000
H        2.60917000       1.96148000      -0.88778000
H        7.43726000       0.92071000      -0.88959000
H        7.43957000       0.89768000       0.87435000
H        7.18911000       3.29612000      -0.78879000
H        8.56904000       2.78508000      -0.08239000
19
Properties=species:S:1:pos:R:3 energy=-1902.84 pbc="F F F"
C        2.51352000      -1.12445000      -1.38090000
C        2.55914000      -0.74020000       0.07076000
C        1.89001000      -1.43647000       1.00527000
C        3.37821000       0.48170000       0.42283000
C        4.85564000       0.32582000       0.19211000
C        5.51820000       0.93807000      -1.01607000
C        5.76614000       1.51679000       0.34843000
H        2.14627000      -0.28873000      -1.98462000
H        1.84957000      -1.97782000      -1.55800000
H        3.51042000      -1.40200000      -1.73748000
H        1.29725000      -2.30941000       0.74893000
H        1.91862000      -1.15413000       2.05307000
H        3.23253000       0.73507000       1.48118000
H        2.98815000       1.33801000      -0.14319000
H        5.23003000      -0.62381000       0.55988000
H        4.91497000       1.51510000      -1.70767000
H        6.32251000       0.38475000      -1.48726000
H        6.73766000       1.35340000       0.80138000
H        5.32621000       2.48031000       0.58087000
17
Properties=species:S:1:pos:R:3 energy=-1631.36 pbc="F F F"
N        0.95559000      -0.04061000       0.21010000
C        2.41042000      -0.12855000       0.10975000
C        3.03090000       1.27139000       0.12340000
C        4.55932000       1.23198000      -0.03955000
N        5.08689000       2.58870000      -0.18727000
C        5.21774000       0.60431000       1.11692000
C        5.75780000       0.09479000       2.06303000
H        0.55856000      -0.97965000       0.18978000
H        0.57893000       0.44505000      -0.60288000
H        2.67592000      -0.65263000      -0.81500000
H        2.78084000      -0.72439000       0.94987000
H        2.75988000       1.78349000       1.05717000
H        2.59568000       1.85772000      -0.69764000
H        4.81229000       0.67213000      -0.94741000
H        4.88853000       3.11230000       0.66473000
H        4.58865000       3.06773000      -0.93408000
H        6.24144000      -0.34960000       2.90103000
15
Properties=species:S:1:pos:R:3 energy=-1513.26 pbc="F F F"
N        3.38187000      -1.12875000      -2.30729000
C        3.49102000      -0.62844000      -1.26226000
C        3.59107000      -0.00452000       0.07363000
N        4.43007000       1.20471000       0.07454000
C        3.70035000       2.36348000      -0.50980000
C        4.28882000       3.21666000       0.63011000
C        4.36651000       1.88244000       1.39628000
H        4.04182000      -0.73546000       0.75645000
H        2.57940000       0.19250000       0.45249000
H        2.60461000       2.30399000      -0.48992000
H        4.02212000       2.64688000      -1.51608000
H        5.26493000       3.66002000       0.40085000
H        3.63199000       3.98050000       1.05249000
H        5.25655000       1.75406000       2.01891000
H        3.47608000       1.67268000       2.00269000
12
Properties=species:S:1:pos:R:3 energy=-1269.63 pbc="F F F"
N        1.03844000      -0.22910000       0.01192000
C        2.19881000      -0.18622000      -0.01120000
C        3.67689000      -0.13810000      -0.01954000
N        4.18511000       1.24170000       0.07064000
C        5.65579000       1.30122000       0.01865000
C        6.33368000       0.70770000       1.18979000
N        6.83521000       0.21952000       2.11547000
H        4.03467000      -0.60088000      -0.94686000
H        4.04683000      -0.73988000       0.81809000
H        3.85903000       1.66256000       0.94289000
H        5.94071000       2.35738000      -0.04988000
H        6.01417000       0.82961000      -0.90376000
17
Properties=species:S:1:pos:R:3 energy=-1665.34 pbc="F F F"
N        2.64988000      -0.88429000      -1.61582000
C        2.16365000      -0.39847000      -0.44038000
N        0.95297000      -0.64699000      -0.06580000
C        3.03425000       0.49410000       0.43249000
C        4.46578000       0.04388000       0.50819000
C        5.54521000       0.75094000      -0.27323000
C        5.47746000       0.90554000       1.21997000
H        3.48286000      -0.43475000      -1.98467000
H        1.97764000      -1.14621000      -2.32538000
H        0.50626000      -1.26888000      -0.74142000
H        2.61234000       0.50716000       1.44360000
H        2.96174000       1.51263000       0.03473000
H        4.54999000      -1.02766000       0.66235000
H        5.28261000       1.61335000      -0.87613000
H        6.35318000       0.15372000      -0.68151000
H        6.23233000       0.40790000       1.81920000
H        5.15487000       1.86004000       1.62139000
13
Properties=species:S:1:pos:R:3 energy=-1372.24 pbc="F F F"
N        0.91304000       0.27674000      -1.17394000
C        2.19959000       0.26310000      -1.16655000
N        2.95472000       1.24461000      -0.61693000
C        4.31859000       1.35091000      -0.55138000
C        5.02258000       2.34740000       0.00000000
C        6.42858000       2.34740000       0.00000000
C        7.61874000       2.34740000       0.00000000
H        0.56665000      -0.56734000      -1.64375000
H        2.77468000      -0.56594000      -1.61696000
H        2.41632000       2.00115000      -0.20664000
H        4.83573000       0.51057000      -1.01295000
H        4.51614000       3.18897000       0.46150000
H        8.68405000       2.34798000       0.00032000
12
Properties=species:S:1:pos:R:3 energy=-1272.56 pbc="F F F"
N        1.00641000      -0.14791000       0.23199000
C        2.36164000      -0.06048000       0.05309000
N        3.02159000      -1.16289000      -0.11472000
C        3.10780000       1.24375000       0.03560000
C        2.52241000       2.35657000       0.51095000
C        4.44146000       1.28732000      -0.47151000
N        5.51988000       1.40673000      -0.88535000
H        0.46118000       0.66101000      -0.04517000
H        0.57261000      -1.01213000      -0.06893000
H        2.39731000      -1.96775000      -0.04454000
H        1.52758000       2.35876000       0.94031000
H        3.05151000       3.30654000       0.51357000
10
Properties=species:S:1:pos:R:3 energy=-1108.39 pbc="F F F"
N        0.98472000      -0.03637000      -0.00000000
C        2.32759000      -0.05930000      -0.00000000
N        3.10411000      -1.07284000      -0.00000000
C        3.05123000       1.17519000      -0.00000000
C        3.66895000       2.20432000      -0.00000000
C        4.45897000       3.51646000      -0.00000000
N        5.04096000       4.51980000       0.00000000
H        0.47699000       0.83859000       0.00000000
H        0.44507000      -0.88929000       0.00000000
H        2.54707000      -1.92887000      -0.00000000
14
Properties=species:S:1:pos:R:3 energy=-1422.77 pbc="F F F"
N        2.04165000      -1.16339000       0.82294000
C        2.43524000      -0.32290000      -0.17061000
N        2.20381000      -0.57605000      -1.41203000
C        3.19960000       0.93663000       0.17750000
C        4.68030000       0.76380000      -0.13856000
C        5.29481000      -0.21435000       0.77006000
N        5.73644000      -0.98890000       1.51217000
H        2.53069000      -1.10108000       1.71208000
H        1.83883000      -2.12141000       0.56320000
H        1.66518000      -1.44205000      -1.49413000
H        3.04364000       1.18232000       1.23443000
H        2.78935000       1.75952000      -0.41937000
H        5.18626000       1.72937000      -0.02612000
H        4.82226000       0.44438000      -1.17730000
17
Properties=species:S:1:pos:R:3 energy=-1659.18 pbc="F F F"
N        1.21724000       0.04319000       0.61353000
N        2.33928000       0.06152000      -0.13671000
C        2.96326000       1.19849000      -0.19010000
C        2.58628000       2.48478000       0.50342000
C        3.37539000       3.49623000      -0.31602000
C        4.65574000       2.76415000      -0.69632000
C        4.21639000       1.33845000      -1.01387000
H        0.86868000      -0.91811000       0.67085000
H        0.46526000       0.56586000       0.15632000
H        2.93867000       2.44307000       1.53860000
H        1.51277000       2.68701000       0.47708000
H        2.81552000       3.76227000      -1.21988000
H        3.57233000       4.41425000       0.24372000
H        5.16262000       3.23384000      -1.54558000
H        5.35265000       2.76278000       0.15145000
H        3.96585000       1.21879000      -2.07039000
H        4.96754000       0.60197000      -0.72225000
15
Properties=species:S:1:pos:R:3 energy=-1521.71 pbc="F F F"
N        1.06976000       0.06619000      -0.39747000
N        2.34817000       0.04650000       0.04828000
C        2.94961000       1.19220000       0.09036000
C        4.36304000       1.27705000       0.59907000
C        4.60163000       2.77766000       0.68986000
C        3.41060000       3.39089000       0.02882000
C        2.45503000       2.52459000      -0.31606000
H        0.71725000      -0.89386000      -0.44412000
H        0.46030000       0.54235000       0.27224000
H        5.03920000       0.80134000      -0.12017000
H        4.46138000       0.78355000       1.57108000
H        5.53013000       3.06103000       0.18404000
H        4.66665000       3.10428000       1.73330000
H        3.33320000       4.45718000      -0.14238000
H        1.51227000       2.71337000      -0.79688000
15
Properties=species:S:1:pos:R:3 energy=-1430.71 pbc="F F F"
C       -1.66673000       0.95686000       0.41804000
C       -1.38962000      -0.40755000      -0.14129000
C       -0.41451000      -1.36461000       0.38683000
C        0.79804000      -0.71508000      -0.17993000
O        1.70679000      -0.21352000       0.71854000
C        0.96469000       0.84620000       0.01638000
C       -0.50363000       0.74925000      -0.53713000
H       -2.53649000       1.48823000       0.04683000
H       -1.46227000       1.12585000       1.46887000
H       -2.05373000      -0.82005000      -0.88729000
H       -0.41090000      -1.39646000       1.48125000
H       -0.55646000      -2.37405000      -0.00854000
H        1.14990000      -1.16385000      -1.10217000
H        0.92394000       1.59934000       0.79379000
H       -0.64097000       1.16003000      -1.53732000
13
Properties=species:S:1:pos:R:3 energy=-1378.05 pbc="F F F"
C        0.56188000       1.23653000       0.66813000
C       -0.85454000       0.76119000       0.43423000
C       -0.82809000       0.00710000      -0.85985000
O        0.56057000       0.01038000      -1.31494000
C        1.21810000       0.00279000      -0.01079000
O        0.57573000      -1.09150000       0.71438000
C       -0.81696000      -0.73243000       0.46198000
H        0.76761000       2.17228000       0.14148000
H        0.79242000       1.30736000       1.73448000
H       -1.69188000       1.34251000       0.76116000
H       -1.67187000      -0.04130000      -1.52653000
H        2.30682000      -0.05830000      -0.05208000
H       -1.65219000      -1.32894000       0.78652000
15
Properties=species:S:1:pos:R:3 energy=-1454.58 pbc="F F F"
C       -1.74710000       0.85447000       0.41369000
C       -1.36924000      -0.42092000      -0.25874000
O       -0.34003000      -1.26447000       0.24421000
C        0.72397000      -0.61673000      -0.47542000
C        1.92297000      -0.16644000       0.20625000
C        0.85394000       0.88245000      -0.07086000
C       -0.61745000       0.85489000      -0.60420000
H       -2.68318000       1.31715000       0.12766000
H       -1.51116000       0.95230000       1.46655000
H       -2.05449000      -0.82785000      -0.99428000
H        0.87580000      -0.91106000      -1.51514000
H        2.07143000      -0.50016000       1.22840000
H        2.84397000      -0.09062000      -0.36101000
H        0.80583000       1.39411000       0.89416000
H       -0.81411000       1.32185000      -1.56475000
13
Properties=species:S:1:pos:R:3 energy=-1364.97 pbc="F F F"
C        0.82357000      -0.04890000       0.02802000
C        2.24820000       0.40825000      -0.14529000
C        1.12230000       1.37757000      -0.29701000
O        0.93055000       2.37419000       0.73905000
C        0.50304000       3.43550000      -0.03395000
C        0.43604000       3.15472000      -1.32687000
O        0.80759000       1.85903000      -1.62993000
H        0.47880000      -0.27490000       1.02880000
H        0.38647000      -0.66174000      -0.75003000
H        2.77572000       0.10582000      -1.04094000
H        2.86797000       0.49263000       0.73793000
H        0.27996000       4.34575000       0.49014000
H        0.14262000       3.77033000      -2.15623000
17
Properties=species:S:1:pos:R:3 energy=-1750.87 pbc="F F F"
C        1.00099000      -0.05394000       0.00279000
C        2.52000000       0.00000000       0.00000000
C        3.00202000       1.36117000       0.00000000
C        3.39930000       2.48307000       0.00000000
C        4.05202000       3.75863000       0.03807000
C        3.89315000       4.69298000      -1.13152000
C        3.24371000       5.01487000       0.18333000
H        0.65745000      -1.09330000       0.00236000
H        0.58525000       0.44195000      -0.88128000
H        0.58859000       0.44010000       0.88945000
H        2.89574000      -0.53279000      -0.88075000
H        2.89906000      -0.53405000       0.87855000
H        5.02583000       3.75463000       0.52018000
H        3.25442000       4.39689000      -1.95377000
H        4.76159000       5.27028000      -1.43022000
H        3.66682000       5.81830000       0.77804000
H        2.16287000       4.93688000       0.25166000
17
Properties=species:S:1:pos:R:3 energy=-1735.24 pbc="F F F"
C       -1.25130000      -0.76553000      -0.52925000
C       -1.25391000       0.76430000      -0.52304000
C       -0.00151000       1.08119000       0.29183000
C        1.25854000       0.76719000      -0.51296000
C        1.26120000      -0.76252000      -0.51703000
C        0.00158000      -1.08487000       0.28438000
O       -0.00421000      -0.00486000       1.24726000
H       -1.22815000      -1.19069000      -1.53679000
H       -2.14787000      -1.13419000      -0.01822000
H       -2.15102000       1.12553000      -0.00778000
H       -1.23374000       1.19768000      -1.52717000
H       -0.00456000       2.06228000       0.77134000
H        2.15052000       1.13257000       0.00843000
H        1.24430000       1.19925000      -1.51791000
H        2.15361000      -1.12720000       0.00370000
H        1.24986000      -1.18913000      -1.52408000
H        0.00041000      -2.06916000       0.75757000
17
Properties=species:S:1:pos:R:3 energy=-1686.99 pbc="F F F"
C       -1.69852000       0.65625000       0.34063000
C       -1.66222000      -0.74053000      -0.37504000
C       -0.19368000      -0.78780000       0.12194000
C        1.16262000      -1.03689000      -0.48094000
O        1.99704000       0.01099000       0.06585000
C        1.10918000       1.03366000       0.57357000
C       -0.21024000       0.74662000      -0.08978000
H       -2.37055000       1.39234000      -0.10732000
H       -1.86526000       0.62033000       1.42316000
H       -1.78121000      -0.70855000      -1.46377000
H       -2.33218000      -1.49570000       0.04282000
H       -0.17008000      -1.11204000       1.17768000
H        1.57943000      -2.00760000      -0.19939000
H        1.16710000      -0.95102000      -1.57314000
H        1.06664000       0.94760000       1.66454000
H        1.51027000       2.01634000       0.31021000
H       -0.14939000       1.07174000      -1.14359000
15
Properties=species:S:1:pos:R:3 energy=-1583.8 pbc="F F F"
C        0.40346000       1.54648000       0.37153000
C        1.46827000       0.47988000       0.01630000
C        0.63897000      -0.53229000      -0.78251000
O       -0.26008000       0.37429000      -1.47460000
C       -0.85189000       0.96221000      -0.28506000
C       -1.26447000      -0.29004000       0.43230000
C       -0.34294000      -1.21328000       0.12527000
H        0.67709000       2.50021000      -0.09240000
H        0.29833000       1.69686000       1.45016000
H        1.94581000       0.04693000       0.90079000
H        2.24043000       0.93415000      -0.61424000
H        1.17656000      -1.17907000      -1.47692000
H       -1.65489000       1.65776000      -0.53295000
H       -2.10557000      -0.39806000       1.09706000
H       -0.28166000      -2.22499000       0.48898000
17
Properties=species:S:1:pos:R:3 energy=-1673.84 pbc="F F F"
C       -1.52348000       0.77793000      -0.05496000
C       -1.52632000      -0.77725000       0.07995000
C       -0.17253000      -1.38650000       0.55678000
C        0.85709000      -0.73156000      -0.27471000
O        2.02949000      -0.00821000      -0.01435000
C        0.86457000       0.72057000       0.26387000
C       -0.17405000       1.38074000      -0.55207000
H       -2.34046000       1.09848000      -0.71072000
H       -1.73618000       1.19417000       0.93900000
H       -1.75592000      -1.19225000      -0.91045000
H       -2.33486000      -1.09368000       0.74802000
H       -0.02796000      -1.22092000       1.63078000
H       -0.17689000      -2.46858000       0.38878000
H        0.70414000      -0.95731000      -1.32546000
H        0.72873000       0.94708000       1.31698000
H       -0.17054000       2.46279000      -0.38389000
H       -0.04653000       1.21446000      -1.62791000
15
Properties=species:S:1:pos:R:3 energy=-1490.43 pbc="F F F"
C        0.85000000       0.90098000      -0.78564000
O       -0.03935000       1.04026000       0.32720000
C        0.63926000      -0.22032000       0.19358000
C        1.55979000      -0.54435000       1.33556000
C        1.06715000      -0.36273000       2.77879000
C        1.57625000      -1.78025000       2.99561000
O        1.78895000      -1.96544000       1.57652000
H        0.40912000       0.81193000      -1.77084000
H        1.77842000       1.45586000      -0.75432000
H        0.04702000      -1.08019000      -0.09503000
H        2.53339000      -0.05956000       1.17477000
H       -0.01568000      -0.25128000       2.89289000
H        1.58211000       0.41297000       3.35057000
H        2.51415000      -1.86386000       3.55147000
H        0.84045000      -2.48346000       3.39342000
15
Properties=species:S:1:pos:R:3 energy=-1500.36 pbc="F F F"
C       -1.38531000       0.78262000       0.59337000
C       -1.19425000      -0.29976000      -0.43462000
O       -0.35445000      -1.40079000      -0.02757000
C        0.98296000      -1.25558000      -0.50893000
C        1.56793000       0.02934000       0.05503000
O        0.88208000       1.18920000      -0.43104000
C       -0.54762000       1.05115000      -0.62394000
H       -2.35858000       1.25611000       0.64960000
H       -0.89346000       0.67596000       1.55090000
H       -2.03975000      -0.53737000      -1.07164000
H        1.55924000      -2.12137000      -0.17040000
H        0.96800000      -1.24866000      -1.60425000
H        1.51194000       0.03982000       1.14945000
H        2.61884000       0.12463000      -0.23486000
H       -0.98399000       1.69738000      -1.37993000
15
Properties=species:S:1:pos:R:3 energy=-1509.06 pbc="F F F"
C        1.77095000       0.13159000      -0.68429000
C        1.76399000      -0.12486000       0.80089000
C        0.48578000      -0.00526000       0.05056000
O       -0.31891000       1.15958000       0.25296000
C       -1.64758000       0.72688000      -0.06949000
C       -1.63311000      -0.77457000       0.18413000
O       -0.30189000      -1.18167000      -0.15187000
H        2.05365000       1.11847000      -1.02812000
H        2.06719000      -0.67835000      -1.33845000
H        2.05485000      -1.10779000       1.14868000
H        2.04035000       0.68904000       1.45912000
H       -2.38445000       1.25167000       0.54426000
H       -1.82665000       0.95018000      -1.12704000
H       -2.36711000      -1.31087000      -0.42120000
H       -1.79646000      -0.99909000       1.24278000
17
Properties=species:S:1:pos:R:3 energy=-1755.39 pbc="F F F"
C        2.34228000      -1.08131000       1.95980000
C        2.91479000      -0.51296000       0.88787000
C        3.56200000       0.85353000       0.77525000
C        3.52921000       1.65787000       2.05445000
C        2.89137000       2.82796000       2.20289000
C        4.99165000       0.70331000       0.30781000
C        5.48185000       1.22198000      -0.82729000
H        1.90816000      -2.07417000       1.89039000
H        2.28281000      -0.58351000       2.92164000
H        2.91315000      -1.08647000      -0.03962000
H        2.99353000       1.39598000       0.00675000
H        4.07452000       1.25199000       2.90470000
H        2.33770000       3.28262000       1.38760000
H        2.91510000       3.35645000       3.15075000
H        5.65894000       0.13137000       0.95066000
H        4.86267000       1.80428000      -1.50233000
H        6.52262000       1.07610000      -1.09939000
15
Properties=species:S:1:pos:R:3 energy=-1569.15 pbc="F F F"
C        0.81888000      -1.28178000       0.89525000
C        1.18482000      -0.38324000      -0.25109000
O        1.07459000       1.04993000      -0.06345000
C       -0.14454000       1.59557000       0.45374000
C       -1.38498000       0.82304000       0.11875000
C       -1.33424000      -0.46798000      -0.23231000
C       -0.07619000      -1.20240000      -0.31783000
H        1.40492000      -2.18300000       1.03117000
H        0.49573000      -0.83289000       1.82589000
H        2.00975000      -0.70908000      -0.87841000
H       -0.04758000       1.69482000       1.54007000
H       -0.23374000       2.60496000       0.03914000
H       -2.33822000       1.33526000       0.19655000
H       -2.25343000      -1.00211000      -0.45717000
H       -0.08024000      -2.05013000      -0.99435000
11
Properties=species:S:1:pos:R:3 energy=-1200.23 pbc="F F F"
C        2.31130000       0.09875000       0.49267000
O        1.26089000       0.78852000      -0.25041000
C        2.14569000       1.71872000      -0.65330000
C        2.20091000       3.07639000      -0.60472000
O        3.34508000       3.40978000       0.09777000
C        3.89651000       2.23399000       0.57063000
C        3.18965000       1.18837000       0.05905000
H        2.51851000      -0.88414000       0.05916000
H        2.11734000       0.01760000       1.56539000
H        1.52656000       3.89376000      -0.81235000
H        4.66291000       2.35669000       1.32271000
13
Properties=species:S:1:pos:R:3 energy=-1439.08 pbc="F F F"
C        1.78959000      -0.63728000       1.26196000
C        2.43746000      -0.08594000       0.22362000
C        3.09793000       1.27371000       0.13147000
C        2.78817000       2.15014000       1.27928000
C        2.54167000       2.87769000       2.20377000
C        4.55083000       1.07819000      -0.04943000
C        5.73232000       0.92304000      -0.19949000
H        1.36022000      -1.63122000       1.18008000
H        1.67649000      -0.12825000       2.21394000
H        2.50206000      -0.67590000      -0.69061000
H        2.70225000       1.76049000      -0.77039000
H        2.32671000       3.52148000       3.02406000
H        6.78110000       0.78511000      -0.32622000
15
Properties=species:S:1:pos:R:3 energy=-1470.39 pbc="F F F"
C       -1.75065000       0.65996000       0.21687000
O       -1.55984000      -0.70280000      -0.37441000
C       -0.23937000      -0.62089000       0.22751000
C        1.03746000      -0.97210000      -0.46841000
O        1.94772000       0.04395000       0.02648000
C        1.10787000       1.09137000       0.58713000
C       -0.24116000       0.89237000      -0.05267000
H       -2.43484000       1.25916000      -0.38863000
H       -2.08697000       0.61675000       1.25854000
H       -0.26721000      -0.94997000       1.27809000
H        1.42039000      -1.95868000      -0.19464000
H        0.98393000      -0.89213000      -1.55934000
H        1.09415000       0.98834000       1.67860000
H        1.55109000       2.05891000       0.33444000
H       -0.13861000       1.18940000      -1.11104000
13
Properties=species:S:1:pos:R:3 energy=-1374.43 pbc="F F F"
C        0.72670000      -1.24074000       0.49442000
O       -0.63614000      -1.55682000       0.13157000
C       -1.53834000      -0.54269000      -0.01246000
C       -1.23891000       0.75921000      -0.04207000
C        0.13132000       1.24330000       0.04750000
O        1.15132000       0.79517000      -0.86276000
C        1.13265000       0.19772000       0.43990000
H        1.38525000      -1.84123000      -0.14375000
H        0.85923000      -1.60282000       1.52130000
H       -2.54141000      -0.93012000      -0.13595000
H       -2.03205000       1.48779000      -0.17851000
H        0.24684000       2.23700000       0.46317000
H        1.94303000       0.44458000       1.10956000
15
Properties=species:S:1:pos:R:3 energy=-1576.36 pbc="F F F"
C       -0.46173000       1.44140000      -0.47335000
O       -1.27535000       0.55846000       0.28265000
C       -1.33085000      -0.75685000      -0.24718000
C       -0.22339000      -1.58322000       0.31941000
C        1.05589000      -1.20787000       0.44810000
C        1.63799000       0.02544000      -0.02078000
C        1.00607000       1.13836000      -0.42024000
H       -0.61368000       2.43927000      -0.04687000
H       -0.80855000       1.48412000      -1.51232000
H       -1.33402000      -0.77117000      -1.34254000
H       -2.28223000      -1.18561000       0.08386000
H       -0.50870000      -2.56945000       0.67996000
H        1.75709000      -1.90625000       0.90229000
H        2.72847000       0.02095000      -0.05304000
H        1.63227000       1.96170000      -0.76448000
15
Properties=species:S:1:pos:R:3 energy=-1514.13 pbc="F F F"
C        1.58538000      -0.15420000      -0.07776000
O        0.74193000      -1.16043000       0.46095000
C       -0.34130000      -1.49065000      -0.39979000
C       -1.48035000      -0.52713000      -0.22661000
C       -1.36588000       0.75119000       0.17482000
C       -0.06785000       1.46876000       0.40339000
O        0.91186000       1.01350000      -0.52369000
H        2.14873000      -0.56725000      -0.92099000
H        2.31203000       0.12875000       0.69084000
H       -0.68824000      -2.48270000      -0.09042000
H       -0.02563000      -1.56430000      -1.44641000
H       -2.47201000      -0.92707000      -0.42010000
H       -2.26746000       1.34127000       0.31341000
H        0.27197000       1.38360000       1.44257000
H       -0.22237000       2.53280000       0.19442000
15
Properties=species:S:1:pos:R:3 energy=-1547.79 pbc="F F F"
C        1.02871000       0.11271000      -0.56752000
C        2.15794000      -0.04993000       0.40283000
C        2.47840000      -1.42004000       1.13302000
C        3.84045000      -0.61922000       1.17215000
O        3.49887000      -0.31092000      -0.28083000
C        3.57290000       0.62462000       1.94105000
C        2.40700000       1.02277000       1.41125000
H        0.06357000       0.12663000      -0.05015000
H        1.00413000      -0.71180000      -1.28819000
H        1.12092000       1.04500000      -1.13493000
H        2.46432000      -2.31999000       0.51089000
H        1.98181000      -1.60527000       2.08908000
H        4.78212000      -1.15127000       1.30253000
H        4.17435000       1.08580000       2.70469000
H        1.81383000       1.89273000       1.63306000
17
Properties=species:S:1:pos:R:3 energy=-1703.44 pbc="F F F"
C        1.02735000      -0.05734000      -0.05121000
C        2.52096000       0.06260000      -0.00794000
C        3.42861000      -0.63113000      -1.09032000
C        4.48962000      -0.26657000       0.01112000
C        3.38191000      -0.79438000       0.99257000
O        4.50960000       1.17956000       0.12572000
C        3.10507000       1.48686000       0.11606000
H        0.57179000       0.35552000       0.85506000
H        0.71639000      -1.10426000      -0.13214000
H        0.61319000       0.47975000      -0.91104000
H        3.53045000      -0.10777000      -2.04486000
H        3.25441000      -1.69628000      -1.27701000
H        5.46998000      -0.74187000      -0.00405000
H        3.20315000      -1.87503000       1.00381000
H        3.43892000      -0.42617000       2.02165000
H        2.86963000       2.11812000      -0.74567000
H        2.82731000       1.97870000       1.05287000
17
Properties=species:S:1:pos:R:3 energy=-1707.74 pbc="F F F"
C        1.02688000       0.00423000       0.03030000
C        2.54320000      -0.00134000      -0.02220000
C        3.24550000      -0.94921000      -1.04600000
C        4.74255000      -0.75110000      -0.84676000
C        4.74953000       0.77858000      -0.80292000
C        3.25405000       1.00097000      -0.98685000
O        2.86066000       0.05966000      -2.08396000
H        0.66978000       0.85201000       0.62432000
H        0.65854000      -0.91358000       0.50047000
H        0.57338000       0.07741000      -0.96320000
H        2.95918000      -0.03655000       0.99260000
H        2.82462000      -1.94002000      -1.21725000
H        5.10506000      -1.19559000       0.08475000
H        5.32636000      -1.13845000      -1.68690000
H        5.33469000       1.20766000      -1.62178000
H        5.11843000       1.16643000       0.15113000
H        2.84153000       2.00371000      -1.09884000
17
Properties=species:S:1:pos:R:3 energy=-1710.69 pbc="F F F"
C        0.76597000       0.01900000       0.09739000
C        2.25620000       0.02067000       0.16163000
C        3.10622000      -0.84250000      -0.74146000
C        2.63686000      -1.42366000      -2.02966000
O        2.65799000      -0.36284000      -2.99887000
C        2.65066000       0.89840000      -2.31020000
C        3.11447000       0.63564000      -0.91966000
H        0.37685000       0.95744000       0.50615000
H        0.36930000      -0.80187000       0.70143000
H        0.37492000      -0.09113000      -0.91715000
H        2.59420000       0.14174000       1.18616000
H        3.98852000      -1.32295000      -0.34253000
H        3.29977000      -2.21991000      -2.38082000
H        1.62098000      -1.82383000      -1.96134000
H        3.32316000       1.57979000      -2.83985000
H        1.63998000       1.31596000      -2.34142000
H        4.00197000       1.18751000      -0.64489000
19
Properties=species:S:1:pos:R:3 energy=-1845.96 pbc="F F F"
C        1.04877000       0.08908000      -0.08511000
C        2.53795000       0.02903000      -0.02632000
C        3.36603000      -0.71471000      -1.05612000
C        2.75267000      -1.43999000      -2.20541000
C        3.43561000       0.79779000      -0.97880000
C        2.89927000       1.67744000      -2.06349000
O        4.63687000       1.32898000      -0.39241000
H        0.68369000       0.86996000       0.58830000
H        0.62724000      -0.86409000       0.24667000
H        0.65609000       0.29988000      -1.08113000
H        2.86173000      -0.05516000       1.00699000
H        4.22646000      -1.26729000      -0.69005000
H        1.85000000      -0.96335000      -2.59477000
H        2.48517000      -2.45657000      -1.90050000
H        3.47402000      -1.51411000      -3.02566000
H        2.00712000       1.27939000      -2.55254000
H        3.66092000       1.82149000      -2.83690000
H        2.64351000       2.66078000      -1.65492000
H        4.98425000       0.76136000       0.31604000
17
Properties=species:S:1:pos:R:3 energy=-1712.85 pbc="F F F"
C        0.92767000       0.02659000       0.06752000
C        2.44153000       0.03041000       0.00776000
C        3.16770000       1.02740000       0.94184000
C        4.22604000      -0.07031000       1.21448000
C        3.16621000      -1.10673000       0.76776000
C        5.55074000      -0.00560000       0.41159000
O        5.67326000       0.09455000      -0.80908000
H        0.52272000      -0.81399000      -0.50380000
H        0.52439000       0.94965000      -0.35976000
H        0.56414000      -0.05705000       1.09665000
H        2.78851000       0.11469000      -1.03194000
H        2.60020000       1.31321000       1.83511000
H        3.53277000       1.93684000       0.45567000
H        4.45513000      -0.15776000       2.28535000
H        3.52914000      -1.92608000       0.14011000
H        2.59749000      -1.53279000       1.60273000
H        6.45954000      -0.05860000       1.03584000
19
Properties=species:S:1:pos:R:3 energy=-1866.95 pbc="F F F"
C        0.99898000       0.00887000      -0.03309000
C        2.51884000       0.00510000       0.03860000
C        3.07490000       1.11957000       0.91850000
C        4.49807000       0.65317000       1.18085000
C        4.36862000      -0.85252000       1.40038000
C        3.08452000      -1.27143000       0.67566000
O        3.35316000      -2.25149000      -0.31586000
H        0.63940000      -0.81843000      -0.65312000
H        0.63669000       0.94449000      -0.47093000
H        0.55086000      -0.09359000       0.96052000
H        2.90793000       0.11728000      -0.98258000
H        2.52037000       1.19658000       1.86143000
H        3.04681000       2.09390000       0.42221000
H        5.12456000       0.84674000       0.30156000
H        4.95268000       1.15968000       2.03729000
H        5.25875000      -1.38767000       1.05520000
H        4.25769000      -1.04976000       2.47301000
H        2.38286000      -1.71192000       1.39253000
H        4.01377000      -1.88562000      -0.92878000
13
Properties=species:S:1:pos:R:3 energy=-1458.24 pbc="F F F"
C        0.94461000       0.01873000      -0.00620000
C        2.42068000       0.04233000      -0.00246000
C        3.29174000       1.05841000       0.00202000
C        4.64258000       0.57153000       0.00488000
C        4.66827000      -0.76330000       0.00257000
C        3.25621000      -1.17430000      -0.00214000
O        2.85583000      -2.32216000      -0.00515000
H        0.53163000       1.03187000      -0.00037000
H        0.56659000      -0.50494000       0.87701000
H        0.57105000      -0.49308000      -0.89822000
H        3.03494000       2.10771000       0.00338000
H        5.51077000       1.21470000       0.00844000
H        5.50227000      -1.44001000       0.00376000
15
Properties=species:S:1:pos:R:3 energy=-1610.81 pbc="F F F"
C        0.97888000       0.04160000       0.06709000
C        2.45300000      -0.03023000      -0.01944000
C        3.27755000      -1.08103000      -0.05580000
C        4.72848000      -0.73082000      -0.13739000
C        4.76028000       0.78963000      -0.24920000
C        3.31606000       1.16406000      -0.09713000
O        2.88823000       2.30715000      -0.05867000
H        0.53014000      -0.95719000       0.04211000
H        0.57136000       0.61265000      -0.77280000
H        0.67181000       0.52715000       0.99791000
H        2.93847000      -2.10895000      -0.01717000
H        5.25471000      -1.07012000       0.76080000
H        5.20029000      -1.19982000      -1.00678000
H        5.12281000       1.11025000      -1.22975000
H        5.36092000       1.23973000       0.54594000
17
Properties=species:S:1:pos:R:3 energy=-1726.01 pbc="F F F"
C        0.88879000      -0.01083000       0.17755000
C        2.38332000       0.02960000      -0.06172000
C        3.18601000       1.07405000       0.76546000
C        4.21226000      -0.00904000       1.20232000
C        5.55861000       0.01211000       0.50310000
C        3.21431000      -1.05453000       0.65628000
O        3.12708000      -2.26201000       0.74756000
H        0.44269000      -0.87823000      -0.31969000
H        0.41119000       0.88819000      -0.22528000
H        0.65041000      -0.07274000       1.24437000
H        2.62136000       0.06502000      -1.13279000
H        2.63242000       1.50442000       1.60914000
H        3.59622000       1.90084000       0.17634000
H        4.32726000      -0.07076000       2.29100000
H        5.44838000       0.05614000      -0.58579000
H        6.13479000      -0.88569000       0.74859000
H        6.14177000       0.88301000       0.81860000
19
Properties=species:S:1:pos:R:3 energy=-1864.23 pbc="F F F"
C        0.97053000       0.06950000       0.10716000
C        2.48738000       0.01145000      -0.05982000
C        2.98906000      -1.34815000      -0.55206000
C        2.70161000      -1.56641000      -2.03358000
C        3.18635000      -0.37402000      -2.84768000
C        2.64161000       0.92869000      -2.27958000
O        2.96345000       1.06964000      -0.89738000
H        0.66401000       1.06673000       0.44099000
H        0.63151000      -0.66437000       0.84571000
H        0.43986000      -0.12607000      -0.82948000
H        2.92479000       0.19149000       0.92938000
H        2.56120000      -2.16239000       0.04353000
H        4.07797000      -1.38607000      -0.41239000
H        3.19541000      -2.48121000      -2.37941000
H        1.62559000      -1.70728000      -2.18857000
H        4.28232000      -0.34914000      -2.81274000
H        2.89246000      -0.48413000      -3.89662000
H        3.09158000       1.77535000      -2.80913000
H        1.55837000       1.00474000      -2.42163000
17
Properties=species:S:1:pos:R:3 energy=-1721.5 pbc="F F F"
C        1.13176000       0.18144000      -0.30317000
C        2.54380000      -0.06937000       0.22698000
C        3.15605000      -1.39008000      -0.26742000
C        3.77561000      -1.26272000      -1.62673000
C        4.00856000      -0.05573000      -2.16291000
C        3.69008000       1.22486000      -1.44932000
O        3.41738000       1.03177000      -0.05786000
H        0.76882000       1.15924000       0.03161000
H        0.44114000      -0.58796000       0.05572000
H        1.09398000       0.18424000      -1.39689000
H        2.46999000      -0.12216000       1.31992000
H        2.39914000      -2.18127000      -0.27220000
H        3.94897000      -1.70224000       0.42315000
H        4.04613000      -2.16844000      -2.16218000
H        4.45318000       0.02386000      -3.15060000
H        4.54820000       1.90062000      -1.51526000
H        2.84083000       1.72648000      -1.92363000
19
Properties=species:S:1:pos:R:3 energy=-1866.88 pbc="F F F"
C        1.05918000      -0.06234000       0.05322000
C        2.56980000       0.05836000       0.02371000
C        3.10717000       1.18265000       0.89044000
C        4.51027000       0.69986000       1.16642000
C        4.29486000      -0.79539000       1.34315000
C        5.49906000      -1.62685000       0.94421000
O        3.16877000      -1.15086000       0.52175000
H        0.73245000      -0.90989000      -0.55974000
H        0.58232000       0.84744000      -0.32429000
H        0.69873000      -0.25411000       1.06906000
H        2.91001000       0.18233000      -1.01199000
H        2.55054000       1.25579000       1.83252000
H        3.07332000       2.15605000       0.39407000
H        5.14927000       0.90757000       0.29983000
H        4.96548000       1.16844000       2.04414000
H        4.01905000      -1.01749000       2.38098000
H        5.73592000      -1.48984000      -0.11745000
H        5.28751000      -2.69283000       1.08044000
H        6.37872000      -1.36447000       1.53835000
17
Properties=species:S:1:pos:R:3 energy=-1726.03 pbc="F F F"
C        0.90987000      -0.02314000       0.14886000
C        2.42539000      -0.00567000      -0.02077000
C        2.82381000       0.02393000      -1.49832000
C        3.14517000       1.09443000       0.83043000
C        4.12616000      -0.01066000       1.27568000
O        5.22936000      -0.00829000       1.77829000
C        3.16713000      -1.11899000       0.79196000
H        0.62450000      -0.04401000       1.20600000
H        0.47341000      -0.90551000      -0.33094000
H        0.45601000       0.86653000      -0.30059000
H        3.91204000       0.03727000      -1.62358000
H        2.42135000       0.91471000      -1.99257000
H        2.43961000      -0.85747000      -2.02270000
H        2.56736000       1.50314000       1.66533000
H        3.60740000       1.91038000       0.26959000
H        3.64551000      -1.90582000       0.20401000
H        2.59803000      -1.56781000       1.61237000
19
Properties=species:S:1:pos:R:3 energy=-1849.53 pbc="F F F"
C        0.92431000      -0.02138000       0.19886000
C        2.42730000      -0.00548000      -0.06569000
C        2.72743000       0.01873000      -1.56372000
C        3.19221000       1.07142000       0.74822000
C        4.16605000      -0.01110000       1.25173000
O        5.49528000       0.00758000       0.69697000
C        3.20954000      -1.09353000       0.71664000
H        0.70305000      -0.03909000       1.27211000
H        0.45733000      -0.90498000      -0.25060000
H        0.44335000       0.86774000      -0.22421000
H        3.80259000       0.03102000      -1.76777000
H        2.29259000       0.90809000      -2.03371000
H        2.30793000      -0.86401000      -2.05939000
H        2.61538000       1.53672000       1.55610000
H        3.65115000       1.87186000       0.15831000
H        4.24258000      -0.02634000       2.34561000
H        5.37997000       0.02027000      -0.26777000
H        3.68077000      -1.86903000       0.10368000
H        2.64017000      -1.59132000       1.51041000
15
Properties=species:S:1:pos:R:3 energy=-1559.6 pbc="F F F"
C        1.03571000      -0.02681000       0.04793000
C        2.55176000       0.02888000       0.04243000
C        3.10836000       1.18017000       0.84873000
C        4.47814000       0.66870000       1.22246000
C        4.23892000      -0.80851000       1.32068000
O        4.97721000      -1.61108000       1.86654000
O        3.08443000      -1.14117000       0.66910000
H        0.68604000      -0.89673000      -0.51834000
H        0.60439000       0.87586000      -0.39492000
H        0.64763000      -0.14139000       1.06603000
H        2.91763000       0.05460000      -0.99122000
H        2.51933000       1.34152000       1.76038000
H        3.13518000       2.12126000       0.29230000
H        5.21340000       0.86050000       0.43574000
H        4.81459000       1.07970000       2.17684000
17
Properties=species:S:1:pos:R:3 energy=-1702.2 pbc="F F F"
C        0.94014000      -0.18016000       0.35509000
C        2.23414000       0.43687000      -0.13702000
C        3.06019000       1.22269000       0.88611000
C        4.04005000       0.04495000       0.80669000
O        3.27201000      -0.56652000      -0.26361000
C        5.44991000       0.40548000       0.50505000
C        5.88364000       0.59720000      -0.74687000
H        0.52204000      -0.85200000      -0.40127000
H        0.19802000       0.59755000       0.56074000
H        1.09078000      -0.75669000       1.27384000
H        2.10021000       0.97044000      -1.08564000
H        2.59596000       1.36770000       1.86586000
H        3.42821000       2.18467000       0.51578000
H        3.99724000      -0.59969000       1.69422000
H        6.13250000       0.50656000       1.34276000
H        5.22444000       0.49128000      -1.60383000
H        6.91956000       0.85401000      -0.94293000
13
Properties=species:S:1:pos:R:3 energy=-1406.28 pbc="F F F"
C        0.86529000      -0.04256000      -0.00566000
C        2.34469000       0.00275000      -0.00285000
C        3.15076000       1.11770000      -0.00381000
O        2.92914000       2.41544000      -0.00708000
O        4.46203000       0.78818000      -0.00083000
C        4.51585000      -0.56985000       0.00203000
C        3.24569000      -1.09982000       0.00098000
H        0.43241000       0.96318000       0.00420000
H        0.49798000      -0.57729000       0.87561000
H        0.50121000      -0.55878000      -0.89926000
H        3.82729000       2.78983000      -0.00641000
H        5.50794000      -0.99970000       0.00453000
H        2.99649000      -2.15227000       0.00255000
21
Properties=species:S:1:pos:R:3 energy=-2046.51 pbc="F F F"
C        0.92271000       0.13806000      -0.27000000
C        2.41098000       0.11174000      -0.00438000
C        2.73270000      -0.00160000       1.46826000
C        3.29160000      -0.63292000      -0.98501000
C        3.36870000       0.87803000      -0.93760000
C        2.81031000       1.65570000      -2.10781000
C        4.62468000       1.50426000      -0.37483000
H        0.67633000      -0.00045000      -1.32665000
H        0.49825000       1.09135000       0.06080000
H        0.42241000      -0.66746000       0.27857000
H        3.78721000      -0.22050000       1.65913000
H        2.15433000      -0.81275000       1.92420000
H        2.47657000       0.93090000       1.98181000
H        2.82832000      -1.10179000      -1.84735000
H        4.12680000      -1.20831000      -0.59853000
H        2.02683000       1.11400000      -2.64497000
H        3.60078000       1.87120000      -2.83491000
H        2.39527000       2.60798000      -1.76231000
H        5.15444000       0.84573000       0.31929000
H        4.37933000       2.43286000       0.15039000
H        5.32678000       1.74288000      -1.18110000
15
Properties=species:S:1:pos:R:3 energy=-1610.77 pbc="F F F"
C        1.06077000      -0.32678000       0.39206000
C        2.52293000      -0.01796000       0.31907000
C        3.13902000       1.13799000       0.00000000
C        2.42470000       2.36596000      -0.32418000
C        2.97457000       3.52894000      -0.70342000
C        4.54502000       1.13799000       0.00000000
C        5.73518000       1.13799000       0.00000000
H        0.84248000      -1.19946000      -0.23182000
H        0.41527000       0.48482000       0.05305000
H        0.78734000      -0.57117000       1.42300000
H        3.15048000      -0.87796000       0.55866000
H        1.34122000       2.34577000      -0.24948000
H        4.04572000       3.66419000      -0.81124000
H        2.34692000       4.38788000      -0.91995000
H        6.79997000       1.13853000       0.00007000
17
Properties=species:S:1:pos:R:3 energy=-1727.42 pbc="F F F"
C        0.95648000       0.11307000       0.04990000
C        2.43672000       0.03713000      -0.03117000
C        3.22717000      -1.03216000      -0.14468000
C        2.83093000      -2.46561000      -0.20720000
O        4.59234000      -0.75354000      -0.16955000
C        4.64662000       0.67774000      -0.33433000
C        3.28720000       1.25124000       0.04511000
H        0.49120000      -0.87542000      -0.01209000
H        0.56347000       0.72011000      -0.77161000
H        0.65063000       0.57017000       0.99544000
H        3.71160000      -3.11429000      -0.22437000
H        2.25001000      -2.66410000      -1.11241000
H        2.23224000      -2.73979000       0.66634000
H        4.88791000       0.88947000      -1.38324000
H        5.44936000       1.08309000       0.28998000
H        2.98287000       2.04002000      -0.64707000
H        3.29398000       1.65322000       1.06346000
17
Properties=species:S:1:pos:R:3 energy=-1661.83 pbc="F F F"
C        0.98732000      -0.00148000       0.05400000
C        2.50928000       0.02190000       0.02777000
C        3.02348000       0.08208000      -1.41291000
C        3.08767000       1.13019000       0.88793000
O        4.39079000       0.64975000       1.22021000
C        4.22879000      -0.76885000       1.29546000
O        3.01625000      -1.16590000       0.64707000
H        0.61541000      -0.11928000       1.07841000
H        0.60106000      -0.85680000      -0.51222000
H        0.56256000       0.91591000      -0.36663000
H        4.11901000       0.06059000      -1.45373000
H        2.67899000       0.98835000      -1.92298000
H        2.67867000      -0.78886000      -1.98276000
H        2.53419000       1.25988000       1.82587000
H        3.15619000       2.09768000       0.38155000
H        5.08135000      -1.25710000       0.81466000
H        4.18583000      -1.07430000       2.34583000
19
Properties=species:S:1:pos:R:3 energy=-1849.7 pbc="F F F"
C        0.90198000       0.14022000      -0.25605000
C        2.36353000       0.26390000       0.06988000
C        2.71300000       0.02249000       1.51034000
O        3.22614000      -0.40424000      -0.86418000
C        3.32205000       1.02922000      -0.86045000
C        2.82251000       1.68181000      -2.11580000
C        4.63819000       1.54931000      -0.35768000
H        0.71399000      -0.00740000      -1.32177000
H        0.37008000       1.04004000       0.06757000
H        0.46315000      -0.71862000       0.26225000
H        3.78019000      -0.15165000       1.66926000
H        2.19012000      -0.86111000       1.89004000
H        2.41165000       0.88233000       2.11609000
H        2.02628000       1.11450000      -2.60765000
H        3.63191000       1.78355000      -2.84626000
H        2.44037000       2.68241000      -1.89064000
H        5.13119000       0.86371000       0.33672000
H        4.49281000       2.50808000       0.14878000
H        5.33391000       1.70658000      -1.18913000
17
Properties=species:S:1:pos:R:3 energy=-1695.1 pbc="F F F"
C        0.83017000       0.10031000       0.26200000
C        2.32549000       0.02252000      -0.04165000
C        3.16957000       0.95708000       0.85977000
O        3.51993000      -0.14691000       1.73405000
C        3.07757000      -1.09137000       0.72427000
C        2.63060000       0.13333000      -1.50203000
C        2.37866000      -0.87851000      -2.34206000
H        0.63650000       0.05730000       1.34005000
H        0.28610000      -0.73172000      -0.19871000
H        0.40049000       1.03646000      -0.11221000
H        2.61901000       1.73709000       1.39466000
H        4.06874000       1.39617000       0.41334000
H        3.93664000      -1.54704000       0.21961000
H        2.45355000      -1.88050000       1.15475000
H        3.05560000       1.06056000      -1.87784000
H        1.94735000      -1.81749000      -2.00786000
H        2.59962000      -0.78440000      -3.40156000
15
Properties=species:S:1:pos:R:3 energy=-1509.03 pbc="F F F"
C        0.91920000       0.00884000       0.15685000
C        2.43457000       0.00371000      -0.03553000
C        3.16044000       1.00173000       0.88462000
O        3.59471000      -0.05829000       1.76536000
C        3.14961000      -1.05852000       0.81857000
C        2.83863000       0.03004000      -1.53461000
O        2.57111000      -0.82899000      -2.37477000
H        0.64408000      -0.01031000       1.21742000
H        0.46259000      -0.86479000      -0.32054000
H        0.47525000       0.90702000      -0.28644000
H        2.52881000       1.72753000       1.40595000
H        4.01923000       1.52354000       0.44950000
H        4.00267000      -1.55828000       0.34788000
H        2.51075000      -1.80899000       1.29365000
H        3.41592000       0.91812000      -1.84410000
15
Properties=species:S:1:pos:R:3 energy=-1602.41 pbc="F F F"
C        0.92407000       0.07884000      -0.00919000
C        2.40621000       0.01887000      -0.00214000
C        3.27558000       1.09037000       0.00680000
O        4.56334000       0.66825000       0.01250000
C        4.53266000      -0.68600000       0.00654000
C        3.23268000      -1.15015000      -0.00350000
C        2.80893000      -2.57141000      -0.01403000
H        0.56612000       1.11344000      -0.00000000
H        0.51715000      -0.42785000       0.87170000
H        0.52633000      -0.40929000      -0.90470000
H        3.13906000       2.16251000       0.01023000
H        5.49871000      -1.17215000       0.00991000
H        1.71911000      -2.66812000      -0.01018000
H        3.19622000      -3.09224000       0.86765000
H        3.18861000      -3.07614000      -0.90838000
15
Properties=species:S:1:pos:R:3 energy=-1524.29 pbc="F F F"
C        1.03167000       0.06757000       0.21419000
C        2.50415000      -0.06429000      -0.13262000
C        2.77854000      -0.07498000      -1.62632000
O        3.28935000       0.96293000       0.53230000
C        4.07788000       0.02614000       1.30805000
C        3.27600000      -1.10787000       0.67933000
O        3.26260000      -2.31601000       0.77938000
H        0.87788000       0.12048000       1.29776000
H        0.46406000      -0.79047000      -0.16149000
H        0.60373000       0.97475000      -0.22601000
H        3.85299000      -0.11740000      -1.83586000
H        2.38310000       0.82745000      -2.10495000
H        2.31134000      -0.94336000      -2.10265000
H        5.13372000       0.05007000       1.03333000
H        3.93242000       0.15361000       2.38179000
17
Properties=species:S:1:pos:R:3 energy=-1774.23 pbc="F F F"
C        0.74458000       2.09778000      -0.56999000
C        2.08011000       1.45085000      -0.39183000
C        3.19907000       2.12323000      -0.08352000
C        4.48016000       1.47563000       0.08314000
C        5.60180000       2.14604000       0.38657000
C        6.88094000       1.49582000       0.55193000
C        8.00334000       2.15979000       0.85095000
H        0.02950000       1.67739000       0.14356000
H        0.37238000       1.91006000      -1.58163000
H        0.78417000       3.18062000      -0.41604000
H        2.10816000       0.37273000      -0.52817000
H        3.16109000       3.20284000       0.05049000
H        4.51068000       0.39634000      -0.04914000
H        5.57307000       3.22585000       0.51862000
H        6.92361000       0.41600000       0.42514000
H        8.01987000       3.23622000       0.98823000
H        8.94293000       1.62857000       0.96561000
17
Properties=species:S:1:pos:R:3 energy=-1664.97 pbc="F F F"
C        1.20289000      -0.07319000       0.20326000
C        2.69068000       0.01013000      -0.10826000
C        2.93341000       0.19117000      -1.60164000
O        3.24893000       1.12778000       0.60135000
C        4.45612000       0.62258000       1.17052000
C        4.13350000      -0.82227000       1.43557000
O        3.33658000      -1.20157000       0.31319000
H        1.04184000      -0.20219000       1.28057000
H        0.73814000      -0.92968000      -0.29734000
H        0.68144000       0.84300000      -0.09326000
H        4.00820000       0.23391000      -1.81502000
H        2.49434000       1.12648000      -1.96609000
H        2.52509000      -0.64696000      -2.17573000
H        5.25504000       0.72902000       0.42841000
H        4.72368000       1.18025000       2.07103000
H        5.01968000      -1.45678000       1.51208000
H        3.52507000      -0.93941000       2.33904000
17
Properties=species:S:1:pos:R:3 energy=-1652.25 pbc="F F F"
C        0.94528000       0.06146000      -0.18596000
C        2.42193000       0.00443000       0.01865000
O        2.80688000      -0.15065000       1.39747000
C        3.30134000      -0.69453000      -0.98334000
C        3.40250000       0.79956000      -0.82458000
C        2.95918000       1.71161000      -1.91903000
O        4.55787000       1.27314000      -0.10068000
H        0.66621000       0.04578000      -1.24331000
H        0.53729000       0.97362000       0.26275000
H        0.46643000      -0.79700000       0.29400000
H        3.52296000       0.48400000       1.59597000
H        2.84038000      -1.08785000      -1.88359000
H        4.10092000      -1.31577000      -0.60161000
H        2.13887000       1.29203000      -2.51015000
H        3.78951000       1.91020000      -2.60488000
H        2.62506000       2.66839000      -1.50366000
H        5.37779000       0.92871000      -0.49736000
19
Properties=species:S:1:pos:R:3 energy=-1914.37 pbc="F F F"
C        0.99710000       0.20473000       0.87805000
C        2.47510000       0.09215000       0.68446000
C        3.26619000       1.13498000       0.38522000
C        4.71518000       1.09779000       0.18405000
C        5.40325000      -0.23934000       0.28656000
C        5.35154000       2.25598000      -0.08819000
C        6.81182000       2.48709000      -0.31774000
H        0.72749000      -0.12336000       1.88713000
H        0.47721000      -0.43554000       0.15818000
H        0.63544000       1.22974000       0.74526000
H        2.88330000      -0.90648000       0.80429000
H        2.79625000       2.11280000       0.28193000
H        4.97243000      -0.94960000      -0.42811000
H        5.29714000      -0.64880000       1.29715000
H        6.47247000      -0.19809000       0.07063000
H        4.76585000       3.17312000      -0.15297000
H        7.43521000       1.60843000      -0.14669000
H        7.16553000       3.27340000       0.35695000
H        6.97415000       2.82531000      -1.34577000
21
Properties=species:S:1:pos:R:3 energy=-2050.29 pbc="F F F"
C        0.86102000       0.97656000      -1.00832000
C        2.34844000       0.83164000      -1.05389000
C        3.17244000       1.29097000      -0.09731000
C        4.69235000       1.19255000      -0.05373000
C        5.08899000       0.42676000       1.22108000
C        5.31362000       0.47639000      -1.26707000
C        5.26563000       2.61908000       0.01752000
H        0.51536000       1.53957000      -1.88072000
H        0.52137000       1.49915000      -0.10848000
H        0.39039000      -0.01122000      -1.02727000
H        2.74100000       0.31963000      -1.92791000
H        2.72374000       1.79762000       0.75871000
H        4.70660000       0.91984000       2.12278000
H        6.17864000       0.36047000       1.32026000
H        4.69361000      -0.59586000       1.20938000
H        5.07982000       0.99563000      -2.20365000
H        4.95507000      -0.55598000      -1.35181000
H        6.40595000       0.43516000      -1.18217000
H        4.99936000       3.19909000      -0.87398000
H        6.35930000       2.60314000       0.08900000
H        4.88731000       3.16220000       0.89171000
15
Properties=species:S:1:pos:R:3 energy=-1525.59 pbc="F F F"
C        0.98462000      -0.01326000       0.12518000
C        2.48686000       0.07899000      -0.07607000
O        2.78095000       0.20999000      -1.48921000
C        3.21216000       1.11051000       0.83876000
C        4.14175000       0.02418000       1.42013000
C        3.31364000      -1.02092000       0.66376000
O        3.34404000      -2.23545000       0.61006000
H        0.72610000      -0.11435000       1.18519000
H        0.57132000      -0.87895000      -0.40279000
H        0.48618000       0.88410000      -0.25625000
H        3.45458000      -0.46794000      -1.68300000
H        2.57088000       1.58732000       1.58898000
H        3.74155000       1.90203000       0.29725000
H        5.17744000       0.07518000       1.07347000
H        4.11290000      -0.08183000       2.50613000
15
Properties=species:S:1:pos:R:3 energy=-1584.95 pbc="F F F"
C        0.99869000       0.03435000       0.17144000
C        2.45237000       0.07327000      -0.16740000
C        3.16275000       1.20379000      -0.26996000
C        4.62416000       1.33628000      -0.61455000
C        4.79876000       2.82239000      -0.64078000
C        3.62717000       3.38162000      -0.34130000
O        2.61359000       2.47135000      -0.10152000
H        0.70941000      -0.98411000       0.44980000
H        0.39419000       0.33237000      -0.69053000
H        0.76721000       0.68595000       1.02013000
H        2.94331000      -0.87985000      -0.33804000
H        4.84790000       0.89994000      -1.59226000
H        5.25854000       0.88712000       0.15573000
H        5.71630000       3.34150000      -0.86472000
H        3.35285000       4.41808000      -0.26265000
19
Properties=species:S:1:pos:R:3 energy=-1847.88 pbc="F F F"
C        1.72432000      -0.54563000      -1.15328000
C        2.41113000       0.03936000       0.07150000
C        3.24903000       1.27541000      -0.26727000
C        4.45530000       0.98597000      -1.15563000
C        2.45652000       2.54605000      -0.64334000
C        3.07917000       3.15311000       0.60731000
O        3.70281000       1.90021000       0.96781000
H        1.09141000      -1.39015000      -0.86215000
H        2.45205000      -0.91146000      -1.88355000
H        1.09191000       0.19658000      -1.65031000
H        3.04438000      -0.72883000       0.53108000
H        1.64497000       0.29751000       0.81302000
H        5.10118000       1.86475000      -1.24929000
H        4.14413000       0.70047000      -2.16629000
H        5.06084000       0.17259000      -0.74209000
H        1.36706000       2.45847000      -0.60028000
H        2.74527000       3.02993000      -1.58031000
H        3.82550000       3.93224000       0.42866000
H        2.36877000       3.48408000       1.36971000
17
Properties=species:S:1:pos:R:3 energy=-1723.64 pbc="F F F"
C        3.18557000      -1.11975000      -0.59218000
C        2.50196000       0.06354000       0.07299000
C        3.31413000       1.35502000      -0.02328000
C        3.51471000       1.86242000      -1.45827000
C        3.29501000       3.31539000      -1.28034000
C        2.79759000       3.51727000      -0.06697000
O        2.63013000       2.39710000       0.71692000
H        2.58728000      -2.02595000      -0.45529000
H        4.17316000      -1.29675000      -0.15508000
H        3.30846000      -0.95900000      -1.66723000
H        2.32336000      -0.16847000       1.13067000
H        1.50758000       0.21382000      -0.36649000
H        4.28967000       1.20975000       0.46065000
H        2.78122000       1.45353000      -2.16144000
H        4.51969000       1.63121000      -1.82347000
H        3.45862000       4.07338000      -2.03030000
H        2.46855000       4.44040000       0.38166000
19
Properties=species:S:1:pos:R:3 energy=-1908.23 pbc="F F F"
C        0.80632000       0.57193000      -0.97169000
C        2.29315000       0.70052000      -0.89800000
C        2.93761000       1.45191000       0.00903000
C        4.43369000       1.58701000       0.07832000
C        4.88393000       3.02000000      -0.09312000
C        4.64753000       3.64524000      -1.44101000
C        5.49643000       3.69527000       0.89421000
H        0.51464000      -0.47230000      -0.82421000
H        0.45472000       0.89182000      -1.95695000
H        0.30001000       1.17960000      -0.21514000
H        2.86022000       0.14383000      -1.64089000
H        2.37098000       2.00544000       0.75387000
H        4.92322000       0.96728000      -0.68304000
H        4.76239000       1.19345000       1.04833000
H        5.10321000       3.03583000      -2.22808000
H        5.07982000       4.64940000      -1.50814000
H        3.57567000       3.73395000      -1.64416000
H        5.68123000       3.24179000       1.86404000
H        5.82979000       4.71965000       0.76071000
17
Properties=species:S:1:pos:R:3 energy=-1754.98 pbc="F F F"
C        0.88259000       0.59693000      -1.01664000
C        2.37672000       0.60272000      -1.00859000
C        3.11898000       1.12505000      -0.01875000
C        4.62102000       1.13799000       0.00000000
C        5.10304000       2.49917000       0.00000000
C        5.50032000       3.62106000       0.00000000
C        5.98234000       4.98223000       0.00000000
H        0.51288000       1.14564000      -1.88821000
H        0.46169000       1.05939000      -0.11831000
H        0.51440000      -0.43176000      -1.07560000
H        2.86354000       0.15806000      -1.87405000
H        2.62670000       1.57007000       0.84420000
H        5.02681000       0.59245000      -0.85976000
H        4.96379000       0.61075000       0.89744000
H        5.18843000       5.68131000      -0.28031000
H        6.80537000       5.10884000      -0.71003000
H        6.34770000       5.27090000       0.99033000
19
Properties=species:S:1:pos:R:3 energy=-1905.12 pbc="F F F"
C        0.22715000       0.81965000       0.32100000
C        1.63553000       0.88726000      -0.17398000
C        2.65416000       1.40267000       0.53117000
C        4.07369000       1.46229000       0.03674000
C        4.57902000       2.90611000      -0.04976000
C        5.99787000       2.96524000      -0.54417000
C        7.01929000       3.47055000       0.15976000
H       -0.43253000       1.37021000      -0.35643000
H        0.11970000       1.24570000       1.32343000
H       -0.10593000      -0.22211000       0.35511000
H        1.81378000       0.48500000      -1.16905000
H        2.47332000       1.79715000       1.52947000
H        4.16036000       0.97846000      -0.94461000
H        4.70304000       0.88781000       0.72788000
H        4.49387000       3.38967000       0.93178000
H        3.94931000       3.48129000      -0.73996000
H        6.18653000       2.57912000      -1.54405000
H        6.88095000       3.87385000       1.15798000
H        8.02241000       3.49131000      -0.25465000
19
Properties=species:S:1:pos:R:3 energy=-1845.61 pbc="F F F"
C        0.54938000       1.16873000       0.44969000
C        1.73262000       0.49786000      -0.22981000
C        3.04788000       1.22094000       0.00718000
C        3.70145000       0.95480000       1.34530000
O        3.04467000       1.69540000       2.36253000
C        3.96911000       1.37658000      -1.19038000
C        3.25684000       2.57737000      -0.64607000
H       -0.37388000       0.62654000       0.21916000
H        0.42828000       2.20209000       0.10780000
H        0.66253000       1.18449000       1.53749000
H        1.52114000       0.44046000      -1.30428000
H        1.81603000      -0.53715000       0.12083000
H        4.75798000       1.24503000       1.34838000
H        3.65062000      -0.10824000       1.60078000
H        3.03037000       2.62162000       2.06980000
H        3.65032000       0.99362000      -2.15448000
H        5.04292000       1.31404000      -1.04195000
H        3.85149000       3.32279000      -0.13046000
H        2.45265000       2.99812000      -1.23918000
19
Properties=species:S:1:pos:R:3 energy=-1849.04 pbc="F F F"
C        2.92185000      -1.20624000      -0.50351000
C        2.36844000       0.03631000       0.17613000
C        3.38066000       1.14616000       0.23002000
O        4.54875000       0.84976000       1.00801000
C        3.61654000       2.01393000      -0.97777000
C        2.91858000       2.58385000       0.23019000
C        3.59316000       3.62408000       1.05818000
H        2.16155000      -1.99294000      -0.53532000
H        3.79284000      -1.59687000       0.03312000
H        3.23165000      -0.98778000      -1.53091000
H        2.05797000      -0.21486000       1.19675000
H        1.46802000       0.36134000      -0.35840000
H        4.33378000       0.80146000       1.95561000
H        3.02478000       1.83418000      -1.86772000
H        4.63658000       2.31677000      -1.18544000
H        1.85430000       2.77590000       0.14935000
H        4.68191000       3.51029000       1.06889000
H        3.23359000       3.57344000       2.09051000
H        3.36383000       4.62014000       0.66684000
19
Properties=species:S:1:pos:R:3 energy=-1848.38 pbc="F F F"
C        2.13922000      -0.51364000      -1.42751000
C        2.46432000       0.00373000      -0.03333000
C        3.28156000       1.29594000      -0.08742000
O        4.54613000       1.03200000      -0.73878000
C        2.51463000       2.55240000      -0.59074000
C        3.16813000       3.34928000       0.55345000
C        3.39376000       2.01573000       1.28880000
H        1.54341000      -1.42910000      -1.36079000
H        3.04959000      -0.74328000      -1.98954000
H        1.56762000       0.22315000      -2.00003000
H        3.02033000      -0.76491000       0.51674000
H        1.52490000       0.16478000       0.50939000
H        5.02579000       1.87737000      -0.73910000
H        1.42370000       2.48470000      -0.51068000
H        2.77175000       2.89654000      -1.59634000
H        4.09654000       3.85450000       0.26279000
H        2.51900000       4.06701000       1.06156000
H        4.35882000       1.92765000       1.79499000
H        2.59995000       1.76910000       2.00258000
17
Properties=species:S:1:pos:R:3 energy=-1763.71 pbc="F F F"
C        2.23286000      -0.92903000       1.14994000
C        2.07870000      -0.00780000      -0.02946000
C        1.31823000      -0.33549000      -1.08799000
C        2.79463000       1.27184000       0.03713000
C        2.07642000       2.41099000       0.00707000
C        4.23475000       1.39111000       0.25811000
C        5.14521000       0.51054000      -0.17534000
H        3.26866000      -1.26383000       1.26209000
H        1.61075000      -1.82575000       1.04817000
H        1.92833000      -0.42426000       2.07356000
H        0.78722000      -1.28057000      -1.13340000
H        1.21474000       0.32856000      -1.94151000
H        0.99647000       2.39945000      -0.10288000
H        2.54171000       3.38805000       0.08625000
H        4.57933000       2.27240000       0.79612000
H        4.86650000      -0.37539000      -0.73719000
H        6.20086000       0.66918000       0.01654000
19
Properties=species:S:1:pos:R:3 energy=-1842.0 pbc="F F F"
C        1.08307000       0.02379000       0.16968000
C        2.59507000      -0.02896000      -0.04473000
C        2.91785000      -0.75845000      -1.34841000
C        3.15940000       1.39014000      -0.09402000
C        3.18297000       2.18284000       1.22350000
O        4.57428000       2.53250000       1.02742000
C        4.68806000       1.54119000      -0.02172000
H        0.83800000       0.51853000       1.11533000
H        0.65820000      -0.98502000       0.19925000
H        0.58603000       0.58018000      -0.63232000
H        3.04572000      -0.58534000       0.78658000
H        2.49663000      -0.23431000      -2.21284000
H        2.51363000      -1.77588000      -1.33569000
H        3.99987000      -0.82943000      -1.50048000
H        2.72975000       1.97874000      -0.91652000
H        3.05106000       1.60437000       2.14310000
H        2.53917000       3.06618000       1.24574000
H        5.15735000       1.94987000      -0.92054000
H        5.24856000       0.66759000       0.32496000
15
Properties=species:S:1:pos:R:3 energy=-1538.41 pbc="F F F"
C        1.13443000       0.15510000       0.03444000
C        2.62778000      -0.13391000      -0.04712000
C        2.96385000      -0.83859000      -1.29663000
C        3.23621000      -1.42113000      -2.31067000
C        3.42455000       1.13645000      -0.10933000
C        3.78837000       1.87734000       1.15403000
O        4.74041000       1.06144000       0.45881000
H        0.89516000       0.70478000       0.95120000
H        0.55416000      -0.77425000       0.03364000
H        0.79262000       0.76193000      -0.81247000
H        2.92631000      -0.74171000       0.81522000
H        3.48535000      -1.93818000      -3.20911000
H        3.28440000       1.71738000      -1.01310000
H        3.41951000       1.51369000       2.10466000
H        3.91983000       2.95076000       1.09988000
21
Properties=species:S:1:pos:R:3 energy=-1991.95 pbc="F F F"
C        0.96624000      -0.02457000      -0.00774000
C        2.48603000       0.00531000       0.02107000
C        3.02011000       1.43771000      -0.00766000
C        4.54912000       1.46082000       0.01322000
C        5.08453000       2.89040000      -0.00845000
C        6.60760000       2.91841000       0.00631000
O        7.06561000       4.26441000       0.00067000
H        0.60757000      -1.05810000       0.01679000
H        0.58216000       0.44690000      -0.91771000
H        0.54712000       0.50135000       0.85570000
H        2.87309000      -0.55363000      -0.83890000
H        2.83883000      -0.50480000       0.92501000
H        2.63123000       1.99174000       0.85574000
H        2.65660000       1.94735000      -0.90867000
H        4.93581000       0.91079000      -0.85296000
H        4.91179000       0.94661000       0.91119000
H        4.70370000       3.45310000       0.85297000
H        4.71905000       3.41924000      -0.89755000
H        7.02445000       2.40674000      -0.86734000
H        6.99758000       2.43328000       0.90632000
H        6.73454000       4.68256000      -0.81098000
19
Properties=species:S:1:pos:R:3 energy=-1908.46 pbc="F F F"
C        4.55749000      -2.76656000      -0.44291000
C        3.72723000      -1.74235000       0.28125000
C        2.67587000      -2.09939000       1.03678000
C        4.11401000      -0.29149000       0.08771000
C        5.48105000       0.04287000       0.64423000
C        5.65377000      -0.07758000       2.13342000
C        6.48528000       0.45817000      -0.14612000
H        4.56711000      -2.55850000      -1.51744000
H        4.16714000      -3.78054000      -0.30534000
H        5.58910000      -2.75949000      -0.07611000
H        2.39390000      -3.14053000       1.16428000
H        2.06746000      -1.36062000       1.55077000
H        3.37883000       0.37210000       0.56091000
H        4.06564000      -0.06368000      -0.98563000
H        4.91114000       0.53615000       2.65360000
H        6.64515000       0.25605000       2.45882000
H        5.53530000      -1.11726000       2.45482000
H        6.35912000       0.55775000      -1.22031000
H        7.46130000       0.70883000       0.25816000
17
Properties=species:S:1:pos:R:3 energy=-1716.77 pbc="F F F"
C        1.76187000      -0.56372000      -1.17410000
C        2.46041000      -0.06731000      -0.14536000
C        3.04865000       1.31329000      -0.11583000
C        4.56589000       1.27096000       0.06972000
C        5.15786000       2.67689000       0.08603000
C        6.65279000       2.67624000       0.29454000
O        7.33499000       1.67126000       0.46091000
H        1.35787000      -1.57100000      -1.13550000
H        1.57719000       0.01523000      -2.07358000
H        2.61363000      -0.68874000       0.73537000
H        2.59036000       1.86739000       0.71214000
H        2.80476000       1.85677000      -1.03694000
H        5.02662000       0.68721000      -0.73803000
H        4.81313000       0.75557000       1.00704000
H        4.71406000       3.27074000       0.89230000
H        4.95834000       3.18583000      -0.86314000
H        7.12202000       3.67542000       0.29516000
19
Properties=species:S:1:pos:R:3 energy=-1852.56 pbc="F F F"
C        0.82161000      -0.12792000       0.14876000
C        2.30733000       0.01792000       0.26745000
C        3.05396000       1.12100000       0.05053000
C        2.46393000       2.46482000      -0.31087000
C        4.57199000       1.15191000       0.16951000
C        5.26784000      -0.11436000       0.66168000
O        5.10399000       1.46458000      -1.11687000
H        0.59141000      -1.03101000      -0.42628000
H        0.33739000       0.70651000      -0.36176000
H        0.37754000      -0.23676000       1.14268000
H        2.79791000      -0.91145000       0.55109000
H        1.38183000       2.51621000      -0.17201000
H        2.68316000       2.70776000      -1.35551000
H        2.89224000       3.24917000       0.32298000
H        4.85373000       1.96759000       0.84579000
H        5.11254000      -0.95183000      -0.02804000
H        4.92369000      -0.40282000       1.65988000
H        6.35122000       0.04624000       0.70672000
H        4.70522000       0.83476000      -1.74171000
19
Properties=species:S:1:pos:R:3 energy=-1853.99 pbc="F F F"
C        0.74915000       0.54535000       0.67360000
C        2.23400000       0.68529000       0.77145000
C        2.99727000       1.27983000      -0.15762000
C        4.49818000       1.40467000      -0.05421000
C        5.01713000       2.85091000       0.03745000
C        4.64485000       3.72057000      -1.15579000
O        4.55511000       3.47575000       1.23430000
H        0.47555000      -0.51350000       0.63831000
H        0.34533000       1.03453000      -0.21857000
H        0.27513000       0.99449000       1.55167000
H        2.69482000       0.26500000       1.66393000
H        2.53303000       1.68229000      -1.05592000
H        4.94196000       0.91476000      -0.92976000
H        4.84862000       0.85557000       0.82937000
H        6.11010000       2.81470000       0.10743000
H        3.56501000       3.89564000      -1.20944000
H        4.97979000       3.27049000      -2.09583000
H        5.11003000       4.70834000      -1.06031000
H        3.58521000       3.38925000       1.25153000
17
Properties=species:S:1:pos:R:3 energy=-1726.39 pbc="F F F"
C        0.68501000       1.15748000       1.07537000
C        2.17991000       1.13999000       1.08325000
C        2.93577000       1.49453000       0.03227000
C        4.43478000       1.47705000       0.02705000
C        4.95696000       2.87928000      -0.22895000
C        5.24845000       3.73148000       0.97823000
O        5.08786000       3.32276000      -1.37160000
H        0.29982000       0.14840000       1.25086000
H        0.27988000       1.51762000       0.12442000
H        0.31624000       1.81066000       1.87202000
H        2.64929000       0.81094000       2.00791000
H        2.45889000       1.81506000      -0.89391000
H        4.79963000       0.82048000      -0.77020000
H        4.85300000       1.10264000       0.96760000
H        4.33058000       3.88938000       1.54943000
H        5.63831000       4.70169000       0.65765000
H        6.00126000       3.24079000       1.60015000
17
Properties=species:S:1:pos:R:3 energy=-1726.17 pbc="F F F"
C        2.46238000      -1.12975000       2.24438000
C        3.21656000      -1.24345000       0.94765000
C        3.49981000      -2.43760000       0.40044000
C        3.60539000       0.05133000       0.27917000
C        4.58317000       0.85114000       1.12662000
C        5.95691000       0.26985000       1.33906000
O        4.26381000       1.93154000       1.62765000
H        3.08981000      -0.66976000       3.01448000
H        2.14326000      -2.10834000       2.61954000
H        1.56529000      -0.51686000       2.11138000
H        3.20391000      -3.36733000       0.87903000
H        4.02751000      -2.52393000      -0.54722000
H        2.71128000       0.66075000       0.10473000
H        4.06908000      -0.11316000      -0.70055000
H        6.41372000       0.04122000       0.37372000
H        5.88937000      -0.63275000       1.95019000
H        6.58555000       0.99893000       1.85826000
19
Properties=species:S:1:pos:R:3 energy=-1848.59 pbc="F F F"
C        1.00479000      -0.31542000       0.24777000
C        2.41434000       0.10898000      -0.18369000
C        2.98295000      -0.91572000      -1.16960000
C        2.50507000       1.51870000      -0.76384000
C        1.48732000       2.14655000      -1.38075000
C        3.84145000       2.20431000      -0.61025000
O        4.08614000       2.45092000       0.76632000
H        0.56447000       0.41928000       0.93064000
H        1.04125000      -1.27516000       0.77543000
H        0.33290000      -0.43935000      -0.60821000
H        3.02870000       0.07759000       0.72590000
H        2.41012000      -0.93117000      -2.10377000
H        2.95351000      -1.92353000      -0.74101000
H        4.02645000      -0.69580000      -1.41852000
H        0.51738000       1.68155000      -1.52149000
H        1.59833000       3.15040000      -1.78127000
H        3.87568000       3.16454000      -1.13594000
H        4.65131000       1.58431000      -1.00545000
H        3.27280000       2.84425000       1.12590000
17
Properties=species:S:1:pos:R:3 energy=-1771.02 pbc="F F F"
C        1.06491000       0.06204000      -0.00513000
C        2.56265000      -0.13881000       0.04404000
C        3.05745000      -1.51234000       0.03355000
C        2.31187000      -2.62574000      -0.01619000
C        3.35908000       0.95042000       0.09707000
C        4.80407000       1.00412000       0.14670000
C        5.48377000       2.15549000       0.21981000
H        0.78606000       1.12149000       0.00419000
H        0.58328000      -0.40285000       0.86171000
H        0.64599000      -0.37008000      -0.92020000
H        4.13432000      -1.65773000       0.07161000
H        1.22911000      -2.61372000      -0.05584000
H        2.78993000      -3.60052000      -0.01748000
H        2.87638000       1.92922000       0.10399000
H        5.36960000       0.07880000       0.12221000
H        4.98938000       3.12131000       0.24892000
H        6.56883000       2.15176000       0.25419000
21
Properties=species:S:1:pos:R:3 energy=-1995.12 pbc="F F F"
C        1.87136000      -0.93357000       0.44433000
C        3.32123000      -0.44830000       0.35772000
C        4.08574000      -1.29021000      -0.66532000
C        3.34780000       1.05650000       0.01529000
C        4.74770000       1.68274000       0.01639000
C        4.68934000       3.17116000      -0.30255000
O        5.35959000       1.51228000       1.29114000
H        1.31831000      -0.37265000       1.20468000
H        1.83150000      -1.99288000       0.71816000
H        1.35342000      -0.81078000      -0.51259000
H        3.78196000      -0.60077000       1.34178000
H        3.71246000      -1.11669000      -1.67990000
H        3.98141000      -2.35779000      -0.44511000
H        5.15514000      -1.06078000      -0.65031000
H        2.72944000       1.58041000       0.75690000
H        2.87692000       1.21876000      -0.96290000
H        5.38725000       1.19492000      -0.72469000
H        4.09191000       3.71180000       0.44071000
H        4.25962000       3.34884000      -1.29358000
H        5.69433000       3.60707000      -0.27447000
H        4.79717000       1.94917000       1.95358000
17
Properties=species:S:1:pos:R:3 energy=-1701.24 pbc="F F F"
C        1.00000000       0.00000000       0.00000000
C        2.44400000       0.00000000       0.00000000
C        3.63416000       0.00000000       0.00000000
C        5.07816000       0.00000000       0.00000000
C        5.62230000      -0.65837000       1.26636000
C        5.62261000      -0.70342000      -1.24285000
O        5.54766000       1.34830000      -0.01635000
H        0.60599000       1.02087000       0.01166000
H        0.60601000      -0.52055000       0.87827000
H        0.60602000      -0.50034000      -0.88993000
H        5.27816000      -0.12942000       2.16337000
H        6.71753000      -0.62198000       1.28694000
H        5.30822000      -1.70471000       1.34897000
H        5.27624000      -0.20941000      -2.15903000
H        5.31104000      -1.75309000      -1.28648000
H        6.71791000      -0.66484000      -1.26599000
H        5.06061000       1.80650000      -0.72231000
21
Properties=species:S:1:pos:R:3 energy=-2065.77 pbc="F F F"
C        1.00091000       0.01227000      -0.02540000
C        2.52112000       0.00931000       0.03500000
C        3.07234000       1.12607000       0.91679000
C        4.49436000       0.66667000       1.19036000
C        4.36777000      -0.83601000       1.41265000
C        3.10040000      -1.27576000       0.65871000
C        3.39101000      -2.34619000      -0.38699000
H        0.63370000      -0.80548000      -0.65426000
H        0.63358000       0.95446000      -0.44588000
H        0.56036000      -0.10462000       0.97073000
H        2.91280000       0.13927000      -0.98277000
H        2.51175000       1.20546000       1.85626000
H        3.04528000       2.09888000       0.41757000
H        5.12722000       0.86107000       0.31578000
H        4.93965000       1.17677000       2.04961000
H        5.27143000      -1.36304000       1.08995000
H        4.23870000      -1.03924000       2.48253000
H        2.39365000      -1.69471000       1.38779000
H        4.11743000      -1.99358000      -1.12629000
H        2.47741000      -2.63057000      -0.91807000
H        3.80088000      -3.24463000       0.08531000
21
Properties=species:S:1:pos:R:3 energy=-1991.71 pbc="F F F"
C        2.83914000      -0.86027000      -1.12143000
C        2.44086000       0.05876000       0.02714000
C        3.02412000       1.49704000      -0.02904000
C        2.53216000       2.23905000      -1.28549000
C        2.50786000       2.26009000       1.20965000
C        4.56964000       1.49750000      -0.03203000
O        5.10842000       0.76294000       1.05897000
H        2.37605000      -1.84343000      -0.98547000
H        3.92133000      -1.01092000      -1.16273000
H        2.50230000      -0.47078000      -2.08602000
H        2.73814000      -0.42302000       0.96753000
H        1.34459000       0.11507000       0.05074000
H        2.92848000       1.79096000      -2.20245000
H        2.85186000       3.28745000      -1.27297000
H        1.43852000       2.22634000      -1.35013000
H        2.77833000       1.75122000       2.14102000
H        1.41550000       2.34813000       1.19046000
H        2.92100000       3.27422000       1.25043000
H        4.96491000       2.51898000       0.01653000
H        4.96026000       1.05100000      -0.95237000
H        4.92525000       1.26294000       1.87178000
19
Properties=species:S:1:pos:R:3 energy=-1868.5 pbc="F F F"
C        3.00963000      -1.54657000       0.14590000
C        2.49246000      -0.25259000       0.76039000
C        3.29072000       0.98152000       0.31173000
C        2.63584000       2.25949000       0.83232000
C        4.73340000       0.94300000       0.80531000
C        5.76657000       1.61192000      -0.06770000
O        5.05095000       0.42866000       1.87745000
H        2.39279000      -2.38964000       0.47402000
H        4.04113000      -1.75188000       0.44690000
H        2.97134000      -1.50469000      -0.94717000
H        2.50912000      -0.34462000       1.85315000
H        1.44215000      -0.12998000       0.46847000
H        3.30652000       1.00815000      -0.78481000
H        2.57451000       2.25516000       1.92624000
H        1.62194000       2.36865000       0.43421000
H        3.20886000       3.14602000       0.54056000
H        5.52096000       2.66963000      -0.18891000
H        5.79745000       1.11773000      -1.04182000
H        6.75119000       1.53068000       0.39958000
21
Properties=species:S:1:pos:R:3 energy=-1990.38 pbc="F F F"
C        1.09667000      -0.23707000       0.19280000
C        2.61035000      -0.15295000       0.06021000
C        3.17169000       1.27433000       0.20928000
C        2.80147000       1.96420000       1.54096000
C        3.28109000       1.24756000       2.79557000
C        4.69015000       1.25205000      -0.03540000
O        5.23966000       2.56147000       0.02114000
H        0.75644000      -1.25204000      -0.03741000
H        0.60193000       0.45092000      -0.49996000
H        0.76784000      -0.00379000       1.20972000
H        2.88449000      -0.53756000      -0.93041000
H        3.07449000      -0.82662000       0.78978000
H        2.72775000       1.89434000      -0.58242000
H        1.71315000       2.08298000       1.59962000
H        3.20648000       2.98370000       1.54715000
H        2.85006000       0.24587000       2.87743000
H        2.97622000       1.81075000       3.68381000
H        4.37094000       1.16097000       2.81815000
H        4.91690000       0.83650000      -1.02349000
H        5.20739000       0.63498000       0.70573000
H        4.78570000       3.09792000      -0.65178000
19
Properties=species:S:1:pos:R:3 energy=-1861.04 pbc="F F F"
C        3.38044000      -1.02606000      -0.59803000
C        3.27483000      -0.19256000       0.67303000
C        3.36629000       1.31780000       0.40701000
C        3.10663000       2.10192000       1.70188000
C        3.07285000       3.60976000       1.48697000
C        4.74496000       1.65479000      -0.12236000
O        4.93670000       2.16310000      -1.22320000
H        3.24971000      -2.08714000      -0.36275000
H        4.35894000      -0.90860000      -1.07332000
H        2.60872000      -0.74105000      -1.31967000
H        4.06392000      -0.50616000       1.36822000
H        2.31568000      -0.42047000       1.15402000
H        2.62511000       1.60303000      -0.34913000
H        3.87401000       1.86887000       2.45046000
H        2.14276000       1.79430000       2.12526000
H        4.04876000       3.99022000       1.16890000
H        2.80713000       4.11651000       2.42065000
H        2.33139000       3.88349000       0.72951000
H        5.59288000       1.41752000       0.54415000
17
Properties=species:S:1:pos:R:3 energy=-1697.89 pbc="F F F"
C        1.00074000      -0.05370000       0.00305000
C        2.52000000       0.00000000       0.00000000
C        3.00202000       1.36117000       0.00000000
C        3.39930000       2.48307000       0.00000000
C        3.88132000       3.84424000       0.00000000
C        2.73583000       4.85104000      -0.02938000
O        3.24037000       6.18457000       0.01338000
H        0.65729000      -1.09291000       0.00300000
H        0.58523000       0.44197000      -0.88105000
H        0.58882000       0.44069000       0.88954000
H        2.89554000      -0.53282000      -0.88081000
H        2.89912000      -0.53409000       0.87850000
H        4.53870000       4.02198000      -0.85946000
H        4.50207000       4.02916000       0.88497000
H        2.05596000       4.71362000       0.81903000
H        2.14798000       4.74553000      -0.94755000
H        3.66233000       6.30819000       0.88188000
21
Properties=species:S:1:pos:R:3 energy=-1984.34 pbc="F F F"
C        2.51335000      -0.79449000      -1.19093000
C        2.15212000       0.06059000       0.01890000
C        2.73429000       1.49397000      -0.00568000
C        2.16286000       2.28217000      -1.19649000
C        2.34731000       2.23685000       1.28301000
O        4.15667000       1.49964000      -0.20492000
C        4.95425000       0.92338000       0.81856000
H        2.13469000      -1.81227000      -1.05278000
H        3.59598000      -0.85655000      -1.33215000
H        2.06530000      -0.39986000      -2.10696000
H        2.50352000      -0.46594000       0.91457000
H        1.05858000       0.10659000       0.10311000
H        2.50587000       1.87109000      -2.15232000
H        2.51341000       3.32160000      -1.17568000
H        1.06746000       2.29013000      -1.19092000
H        2.65375000       1.68063000       2.17485000
H        1.26428000       2.38813000       1.34714000
H        2.83931000       3.21455000       1.33349000
H        5.99792000       0.96703000       0.49372000
H        4.70025000      -0.12644000       0.98495000
H        4.87321000       1.48920000       1.74985000
21
Properties=species:S:1:pos:R:3 energy=-1984.66 pbc="F F F"
C        0.95043000       1.80658000       0.94612000
C        2.46327000       1.96214000       0.96133000
C        3.11163000       1.22590000      -0.21502000
C        4.64258000       1.36071000      -0.21566000
C        5.23430000       0.54400000      -1.36308000
O        4.96001000       2.74905000      -0.35920000
C        6.32517000       3.05596000      -0.11305000
H        0.50567000       2.33961000       1.79239000
H        0.66291000       0.75287000       1.01920000
H        0.52350000       2.21630000       0.02494000
H        2.85592000       1.56962000       1.90653000
H        2.70969000       3.02937000       0.92527000
H        2.70836000       1.63714000      -1.14917000
H        2.83486000       0.16521000      -0.17486000
H        5.03234000       0.99213000       0.74153000
H        4.94037000       0.96133000      -2.33230000
H        4.90966000      -0.50029000      -1.31515000
H        6.32821000       0.55346000      -1.33114000
H        6.42262000       4.14300000      -0.04852000
H        6.95205000       2.70906000      -0.93859000
H        6.66376000       2.62062000       0.83171000
15
Properties=species:S:1:pos:R:3 energy=-1545.17 pbc="F F F"
C        0.99572000      -0.01079000      -0.17597000
C        2.48848000      -0.10217000       0.00173000
C        2.99974000      -1.49660000       0.24709000
C        3.24149000       1.01558000      -0.01392000
C        4.70684000       1.09056000       0.13749000
O        5.36369000       0.25744000      -0.69108000
O        5.25395000       1.90151000       0.86410000
H        0.65924000       1.01728000      -0.34719000
H        0.48173000      -0.38442000       0.71698000
H        0.68031000      -0.61059000      -1.03584000
H        2.40210000      -1.98679000       1.02304000
H        4.03706000      -1.51807000       0.59129000
H        2.92813000      -2.09042000      -0.66946000
H        2.78096000       1.99675000      -0.09444000
H        4.76662000      -0.23601000      -1.28366000
17
Properties=species:S:1:pos:R:3 energy=-1685.55 pbc="F F F"
C        1.03198000      -0.00328000      -0.11850000
C        2.56169000      -0.06601000      -0.01454000
C        2.93507000      -0.78042000       1.29692000
C        3.15379000      -0.85775000      -1.18808000
C        3.14276000       1.35212000       0.00532000
O        2.87757000       2.08109000      -1.10321000
O        3.79544000       1.82034000       0.92609000
H        0.70394000       0.43008000      -1.06935000
H        0.60842000       0.61400000       0.68216000
H        0.58884000      -1.00282000      -0.04480000
H        2.53824000      -0.24566000       2.16789000
H        4.02270000      -0.84341000       1.41963000
H        2.53681000      -1.80097000       1.32212000
H        2.85853000      -0.43761000      -2.15548000
H        2.82047000      -1.90153000      -1.16974000
H        4.24932000      -0.85222000      -1.15324000
H        2.35080000       1.62280000      -1.78208000
17
Properties=species:S:1:pos:R:3 energy=-1685.76 pbc="F F F"
C        4.01634000      -1.09646000       0.05434000
C        3.20866000      -0.06121000       0.82716000
C        3.35181000       1.35495000       0.24809000
C        2.36876000       2.31154000       0.91850000
C        4.75767000       1.90144000       0.43712000
O        5.09457000       2.82390000      -0.49438000
O        5.51712000       1.58565000       1.34002000
H        3.85595000      -2.09217000       0.48027000
H        5.08880000      -0.88394000       0.09605000
H        3.71195000      -1.12573000      -0.99680000
H        3.51622000      -0.08051000       1.87972000
H        2.15376000      -0.36079000       0.79909000
H        3.13585000       1.30688000      -0.82648000
H        2.55049000       2.37541000       1.99735000
H        1.33593000       1.98192000       0.76508000
H        2.46338000       3.32344000       0.50947000
H        4.39382000       3.00394000      -1.14854000
17
Properties=species:S:1:pos:R:3 energy=-1745.43 pbc="F F F"
C        0.98716000       0.00679000       0.13694000
C        2.52000000       0.00000000       0.00000000
C        3.12650000      -0.74985000       1.19939000
C        2.88482000      -0.75502000      -1.27319000
C        3.56170000      -0.31344000      -2.34419000
C        3.00202000       1.36117000       0.00000000
C        3.39930000       2.48307000       0.00000000
H        0.51127000       0.52709000      -0.70386000
H        0.67080000       0.51758000       1.05480000
H        0.58050000      -1.01112000       0.16935000
H        2.87061000      -0.25994000       2.14702000
H        4.22153000      -0.78567000       1.13848000
H        2.76389000      -1.78332000       1.25437000
H        2.54311000      -1.79046000      -1.30315000
H        3.94466000       0.69894000      -2.41637000
H        3.74881000      -0.97106000      -3.18743000
H        3.75565000       3.48721000      -0.00144000
21
Properties=species:S:1:pos:R:3 energy=-2047.43 pbc="F F F"
C        0.94166000       0.03149000      -0.01090000
C        2.46891000      -0.17641000       0.00703000
C        2.83580000      -0.98200000       1.26614000
C        2.86835000      -0.98010000      -1.24339000
C        3.14982000       1.21958000       0.01146000
C        4.65539000       1.20658000       0.02483000
C        5.41833000       1.67507000      -0.97006000
H        0.62857000       0.58884000      -0.90069000
H        0.60899000       0.59240000       0.86950000
H        0.41013000      -0.92668000      -0.01527000
H        2.59732000      -0.42103000       2.17635000
H        3.90157000      -1.23109000       1.29302000
H        2.28173000      -1.92683000       1.30363000
H        2.63718000      -0.42508000      -2.15921000
H        2.32876000      -1.93298000      -1.28743000
H        3.93852000      -1.21177000      -1.25132000
H        2.81858000       1.78183000       0.89458000
H        2.79626000       1.79258000      -0.85664000
H        5.14027000       0.80923000       0.91430000
H        4.98618000       2.09104000      -1.87466000
H        6.50233000       1.64891000      -0.89845000
15
Properties=species:S:1:pos:R:3 energy=-1557.98 pbc="F F F"
C        0.98598000      -0.01684000       0.01764000
C        2.52000000       0.00000000       0.00000000
C        3.05825000      -0.74229000       1.23068000
C        2.96764000      -0.77338000      -1.23871000
O        3.49396000      -0.28985000      -2.23730000
C        3.00202000       1.36117000       0.00000000
C        3.39930000       2.48307000       0.00000000
H        0.57362000       0.48539000      -0.86573000
H        0.58946000       0.49387000       0.90276000
H        0.59747000      -1.04154000       0.01794000
H        2.75113000      -0.25128000       2.16162000
H        4.15450000      -0.78012000       1.22329000
H        2.69925000      -1.77757000       1.26377000
H        2.74701000      -1.85580000      -1.21548000
H        3.75986000       3.48593000      -0.01372000
19
Properties=species:S:1:pos:R:3 energy=-1847.41 pbc="F F F"
C        1.12715000      -0.49142000       0.14819000
C        2.64238000      -0.74597000       0.09961000
C        3.06152000      -1.42909000       1.40886000
C        2.94856000      -1.62712000      -1.11997000
O        3.23391000       0.56250000      -0.02491000
C        4.58848000       0.65443000      -0.14749000
C        5.18109000       1.81136000      -0.43926000
H        0.78862000       0.02078000      -0.76003000
H        0.86915000       0.16493000       0.98758000
H        0.56089000      -1.42305000       0.25122000
H        2.89250000      -0.76605000       2.26470000
H        4.12680000      -1.68129000       1.41297000
H        2.50284000      -2.35697000       1.57119000
H        2.71324000      -1.09898000      -2.05089000
H        2.37310000      -2.55872000      -1.09345000
H        4.00892000      -1.89561000      -1.16945000
H        5.15251000      -0.25231000       0.01504000
H        4.59497000       2.71178000      -0.59315000
H        6.25937000       1.88129000      -0.52819000
15
Properties=species:S:1:pos:R:3 energy=-1586.9 pbc="F F F"
C        0.98199000       0.00038000      -0.01098000
C        2.52000000       0.00000000       0.00000000
C        3.00984000      -0.71676000       1.26977000
C        3.00584000      -0.74612000      -1.18632000
C        3.40216000      -1.34848000      -2.14850000
C        3.00202000       1.36117000       0.00000000
C        3.39930000       2.48307000       0.00000000
H        0.58698000       0.49855000      -0.90562000
H        0.57482000       0.52574000       0.86152000
H        0.58084000      -1.02048000      -0.00314000
H        2.65926000      -0.21001000       2.17706000
H        4.10602000      -0.74723000       1.31598000
H        2.65379000      -1.75358000       1.30753000
H        3.75683000      -1.87709000      -3.00303000
H        3.75764000       3.48664000      -0.00467000
19
Properties=species:S:1:pos:R:3 energy=-1847.16 pbc="F F F"
C        1.18524000       0.17386000       0.30151000
C        2.64973000       0.28114000      -0.12979000
C        2.82685000      -0.28977000      -1.54614000
C        4.28321000      -0.33956000      -1.99781000
O        4.36513000      -0.93644000      -3.28842000
C        3.09275000       1.72183000      -0.04796000
C        4.08343000       2.15845000       0.74113000
H        1.04200000       0.56983000       1.31378000
H        0.85835000      -0.87206000       0.30565000
H        0.52409000       0.72942000      -0.37395000
H        3.24406000      -0.32802000       0.56375000
H        2.24419000       0.29014000      -2.27475000
H        2.41234000      -1.30601000      -1.58652000
H        4.89517000      -0.92829000      -1.30662000
H        4.71462000       0.66257000      -2.07223000
H        4.02331000      -1.84359000      -3.21363000
H        2.56767000       2.44072000      -0.67550000
H        4.64081000       1.48670000       1.38649000
H        4.35834000       3.20872000       0.75561000
17
Properties=species:S:1:pos:R:3 energy=-1690.73 pbc="F F F"
C        1.15099000      -0.09143000       0.67603000
C        2.52000000       0.00000000       0.00000000
C        2.51647000      -0.59552000      -1.41692000
C        1.55220000       0.06945000      -2.39613000
O        1.66105000      -0.56010000      -3.66853000
C        3.00202000       1.36117000       0.00000000
C        3.39930000       2.48307000       0.00000000
H        1.21854000       0.21537000       1.72567000
H        0.77256000      -1.11811000       0.65196000
H        0.41185000       0.55942000       0.19766000
H        3.21379000      -0.60773000       0.59621000
H        2.27357000      -1.66535000      -1.36104000
H        3.53103000      -0.55468000      -1.83746000
H        1.76527000       1.13477000      -2.52382000
H        0.51517000      -0.03839000      -2.06729000
H        2.56002000      -0.39164000      -3.99957000
H        3.75487000       3.48795000       0.00365000
21
Properties=species:S:1:pos:R:3 energy=-1995.56 pbc="F F F"
C        0.93422000      -0.11238000      -0.45359000
C        2.45625000      -0.02702000      -0.43191000
C        3.02905000       1.40865000      -0.36886000
C        2.55451000       2.25956000      -1.55034000
O        2.55493000       2.03938000       0.82440000
C        4.57229000       1.32642000      -0.30795000
C        5.28357000       2.66934000      -0.18493000
H        0.61998000      -1.15951000      -0.39106000
H        0.52343000       0.29541000      -1.38177000
H        0.48933000       0.42239000       0.39034000
H        2.85081000      -0.54816000      -1.31277000
H        2.79773000      -0.58482000       0.45004000
H        2.87802000       1.83643000      -2.50643000
H        2.92666000       3.28718000      -1.47823000
H        1.46308000       2.35563000      -1.56120000
H        2.85686000       1.51116000       1.58269000
H        4.95395000       0.80513000      -1.19438000
H        4.86201000       0.72782000       0.56473000
H        5.16277000       3.27099000      -1.09091000
H        6.35756000       2.50930000      -0.04171000
H        4.91334000       3.24423000       0.66863000
19
Properties=species:S:1:pos:R:3 energy=-1869.0 pbc="F F F"
C        1.32609000      -0.58564000       1.56675000
C        1.63979000      -0.15261000       0.14129000
C        3.05670000       0.39614000      -0.00988000
C        4.14261000      -0.66940000       0.02749000
O        3.88549000      -1.87246000       0.05760000
C        5.56994000      -0.14810000      -0.00688000
C        6.60285000      -1.25992000       0.03315000
H        0.28840000      -0.92693000       1.63562000
H        1.45468000       0.24647000       2.26605000
H        1.97175000      -1.40744000       1.88919000
H        0.92839000       0.63148000      -0.14435000
H        1.47753000      -0.99528000      -0.54078000
H        3.26229000       1.13190000       0.77525000
H        3.13923000       0.89935000      -0.98009000
H        5.71301000       0.51396000       0.85323000
H        5.69710000       0.43581000      -0.92443000
H        6.50067000      -1.85926000       0.94394000
H        7.61388000      -0.84195000       0.01002000
H        6.49094000      -1.93170000      -0.82459000
15
Properties=species:S:1:pos:R:3 energy=-1563.95 pbc="F F F"
C        1.70829000      -0.71218000       0.19692000
C        3.18294000      -0.41072000      -0.01430000
C        3.47259000       1.08255000       0.11215000
C        4.93687000       1.39860000      -0.09678000
O        5.81348000       0.56836000      -0.29890000
C        5.28937000       2.80201000      -0.03961000
C        5.58496000       3.96595000       0.00717000
H        1.52275000      -1.78615000       0.09681000
H        1.09133000      -0.19054000      -0.54172000
H        1.38408000      -0.40309000       1.19577000
H        3.48724000      -0.76771000      -1.00552000
H        3.77532000      -0.97063000       0.71925000
H        3.18502000       1.43524000       1.10944000
H        2.89122000       1.63761000      -0.63325000
H        5.85888000       4.99461000       0.04669000
17
Properties=species:S:1:pos:R:3 energy=-1651.84 pbc="F F F"
C        0.90964000      -0.40425000       0.07964000
C        2.36923000      -0.09338000      -0.02453000
C        2.95511000       1.12289000      -0.03387000
C        2.22818000       2.43234000       0.11308000
O        2.13799000       3.06633000      -1.15477000
C        4.44543000       1.25433000      -0.18510000
O        4.71230000       1.92872000      -1.40933000
H        0.72814000      -1.03635000       0.95434000
H        0.58992000      -0.95645000      -0.81040000
H        0.27441000       0.47904000       0.16397000
H        2.99812000      -0.97670000      -0.12923000
H        2.76490000       3.09958000       0.79799000
H        1.21786000       2.32645000       0.51474000
H        3.04979000       3.08011000      -1.51068000
H        4.96193000       0.28882000      -0.20149000
H        4.86813000       1.84159000       0.63769000
H        4.45998000       1.30684000      -2.11679000
19
Properties=species:S:1:pos:R:3 energy=-1795.05 pbc="F F F"
C        0.96994000      -0.03627000       0.04588000
C        2.50638000       0.00010000       0.00454000
C        3.05577000      -0.64463000       1.29000000
C        2.99250000      -0.79358000      -1.22809000
O        4.41187000      -0.86339000      -1.30018000
C        2.96267000       1.47182000      -0.08698000
O        4.38119000       1.58061000      -0.17720000
H        0.53823000       0.41120000      -0.85715000
H        0.58304000       0.51699000       0.90959000
H        0.59885000      -1.06541000       0.11682000
H        2.71837000      -0.09822000       2.17850000
H        4.15057000      -0.66132000       1.30885000
H        2.71030000      -1.68056000       1.38749000
H        2.63033000      -0.33698000      -2.15664000
H        2.61654000      -1.82232000      -1.20054000
H        4.73814000       0.05570000      -1.19530000
H        2.62537000       2.05395000       0.77836000
H        2.54559000       1.94582000      -0.98281000
H        4.73517000       1.48289000       0.72578000
17
Properties=species:S:1:pos:R:3 energy=-1676.76 pbc="F F F"
C        0.36808000      -0.89210000       1.15058000
C        1.69728000      -1.23401000       0.47961000
C        1.66540000      -2.66163000      -0.07004000
C        2.01469000      -0.21552000      -0.62376000
O        3.27416000      -0.50287000      -1.25389000
C        4.36991000      -0.01353000      -0.62446000
O        4.39380000       0.63038000       0.41162000
H        0.39752000       0.11494000       1.57982000
H        0.14949000      -1.59459000       1.96181000
H       -0.46038000      -0.93226000       0.43540000
H        2.48809000      -1.19520000       1.23889000
H        0.90972000      -2.76746000      -0.85595000
H        1.42974000      -3.37780000       0.72449000
H        2.63544000      -2.94440000      -0.49145000
H        2.00614000       0.81090000      -0.23622000
H        1.25215000      -0.25842000      -1.41009000
H        5.26552000      -0.29295000      -1.20053000
15
Properties=species:S:1:pos:R:3 energy=-1529.58 pbc="F F F"
C        0.96024000      -0.06596000       0.40211000
C        2.26469000       0.47781000      -0.17249000
C        2.52574000       0.01258000      -1.60549000
C        1.45090000       0.44699000      -2.57067000
O        0.52893000      -0.28855000      -2.91222000
C        2.28527000       1.98731000      -0.04349000
O        2.56966000       2.74765000      -0.96308000
H        0.85630000       0.21314000       1.45658000
H        0.93113000      -1.15857000       0.33969000
H        0.08678000       0.33463000      -0.12310000
H        3.08884000       0.11371000       0.45402000
H        2.59054000      -1.08134000      -1.63968000
H        3.47957000       0.40202000      -1.97943000
H        1.50630000       1.48954000      -2.92734000
H        2.07643000       2.38274000       0.96637000
11
Properties=species:S:1:pos:R:3 energy=-1233.27 pbc="F F F"
C        1.00000000       0.00000000       0.00000000
C        2.44400000       0.00000000       0.00000000
C        3.63416000       0.00000000       0.00000000
C        5.08023000      -0.00332000      -0.00089000
O        5.69241000      -1.03772000      -0.23657000
C        5.88489000       1.24168000       0.28255000
O        5.35598000       2.31533000       0.52740000
H        0.60600000       1.02088000       0.01194000
H        0.60593000      -0.52074000       0.87812000
H        0.60592000      -0.50007000      -0.89005000
H        6.97490000       1.08999000       0.24762000
19
Properties=species:S:1:pos:R:3 energy=-1797.88 pbc="F F F"
C        1.12317000      -0.20738000      -0.18478000
C        2.64294000      -0.14053000      -0.29602000
C        3.22022000       1.29024000      -0.32608000
C        2.65657000       2.12007000      -1.48137000
O        2.87950000       1.92739000       0.91566000
C        4.76202000       1.25015000      -0.41226000
O        5.31462000       0.60360000       0.73426000
H        0.80300000      -1.24942000      -0.08209000
H        0.63826000       0.19773000      -1.07747000
H        0.76112000       0.34211000       0.68909000
H        2.95554000      -0.68839000      -1.19396000
H        3.04982000      -0.68100000       0.56822000
H        2.82549000       1.63219000      -2.44716000
H        3.12380000       3.11170000      -1.51247000
H        1.58331000       2.30113000      -1.35860000
H        3.11814000       2.86910000       0.84656000
H        5.17418000       2.26517000      -0.42831000
H        5.10473000       0.72217000      -1.30813000
H        4.73160000       0.84541000       1.48116000
19
Properties=species:S:1:pos:R:3 energy=-1890.91 pbc="F F F"
C        0.97163000      -0.09817000       0.17980000
C        2.49389000      -0.02811000       0.00763000
C        2.87335000      -0.77116000      -1.28318000
C        3.02739000       1.43282000       0.00000000
C        2.54993000       2.24114000       1.21205000
C        4.47061000       1.45999000      -0.03862000
C        5.66014000       1.48238000      -0.07045000
H        0.66461000       0.25997000       1.16700000
H        0.61609000      -1.13072000       0.09232000
H        0.45924000       0.50088000      -0.58031000
H        2.94840000      -0.57152000       0.84774000
H        2.46793000      -0.26324000      -2.16489000
H        2.47996000      -1.79358000      -1.27243000
H        3.95866000      -0.84565000      -1.40146000
H        2.64230000       1.93548000      -0.89733000
H        2.80847000       1.74127000       2.15329000
H        1.46587000       2.39353000       1.19107000
H        3.01132000       3.23649000       1.22962000
H        6.72523000       1.50203000      -0.09898000
19
Properties=species:S:1:pos:R:3 energy=-1793.0 pbc="F F F"
C        2.77417000      -0.66042000      -0.86224000
C        2.64396000       0.07930000       0.46179000
C        3.46476000       1.37984000       0.53116000
C        3.12082000       2.13381000       1.82820000
O        3.70945000       3.42809000       1.84588000
C        4.97466000       1.11137000       0.43336000
O        5.71000000       2.33137000       0.49389000
H        2.09826000      -1.52142000      -0.87651000
H        3.78869000      -1.03818000      -1.01681000
H        2.51201000      -0.01054000      -1.70271000
H        2.93622000      -0.59181000       1.27825000
H        1.58345000       0.31553000       0.61288000
H        3.18818000       2.03302000      -0.30821000
H        3.46341000       1.58461000       2.71168000
H        2.03824000       2.27152000       1.91711000
H        4.66987000       3.29426000       1.69964000
H        5.24008000       0.61425000      -0.50396000
H        5.31132000       0.47711000       1.25971000
H        5.52390000       2.81616000      -0.33216000
19
Properties=species:S:1:pos:R:3 energy=-1796.55 pbc="F F F"
C        1.50452000      -0.69770000      -0.06886000
C        3.01094000      -0.49518000      -0.03659000
C        3.38000000       0.98247000      -0.19502000
C        4.89351000       1.20543000      -0.14392000
O        5.54189000       0.51638000      -1.22049000
C        5.25490000       2.69176000      -0.24604000
O        6.67240000       2.84164000      -0.19825000
H        1.26212000      -1.75817000       0.05078000
H        1.08324000      -0.35833000      -1.02083000
H        1.01593000      -0.14433000       0.73995000
H        3.46661000      -1.08717000      -0.83777000
H        3.40436000      -0.87513000       0.91293000
H        2.89643000       1.56720000       0.59718000
H        2.98718000       1.34128000      -1.15490000
H        5.31063000       0.79501000       0.78339000
H        5.08581000       0.75575000      -2.04642000
H        4.81747000       3.26873000       0.57375000
H        4.91620000       3.11221000      -1.19802000
H        7.03836000       2.07049000      -0.67553000
17
Properties=species:S:1:pos:R:3 energy=-1665.8 pbc="F F F"
C        1.39645000      -0.61980000       0.22881000
C        2.91514000      -0.55039000       0.25553000
C        3.41761000       0.83700000      -0.14903000
C        4.94221000       0.93060000      -0.12470000
O        5.49999000      -0.00408000      -1.04265000
C        5.37330000       2.34871000      -0.47138000
O        6.03186000       2.61539000      -1.47409000
H        1.05690000      -1.61903000       0.52092000
H        1.01144000      -0.41111000      -0.77525000
H        0.95688000       0.10474000       0.92277000
H        3.31503000      -1.31159000      -0.42310000
H        3.26908000      -0.79405000       1.26311000
H        2.98919000       1.59500000       0.51852000
H        3.05552000       1.06262000      -1.16130000
H        5.33195000       0.69936000       0.87170000
H        5.85038000       0.51843000      -1.79379000
H        5.06461000       3.13341000       0.23955000
17
Properties=species:S:1:pos:R:3 energy=-1697.04 pbc="F F F"
C        0.32966000       3.28185000      -0.71160000
C        1.47512000       2.59080000      -0.05185000
C        2.71451000       3.08812000       0.00829000
O        3.73397000       2.40773000       0.62435000
C        4.97307000       3.14398000       0.60449000
C        6.21139000       2.30409000       0.76397000
C        5.88009000       2.90261000      -0.57156000
H       -0.46608000       3.46405000       0.01701000
H       -0.07366000       2.65422000      -1.51218000
H        0.62170000       4.24323000      -1.14603000
H        1.27346000       1.62401000       0.40250000
H        2.99236000       4.04091000      -0.42269000
H        4.99432000       4.12030000       1.08089000
H        6.08653000       1.23472000       0.88813000
H        7.03916000       2.72519000       1.32125000
H        6.48219000       3.73139000      -0.92304000
H        5.53402000       2.23685000      -1.35359000
15
Properties=species:S:1:pos:R:3 energy=-1589.03 pbc="F F F"
C        0.99264000      -0.03137000       0.01142000
C        2.52000000       0.00000000       0.00000000
C        3.05926000      -0.76323000      -1.20857000
C        3.00202000       1.36117000       0.00000000
C        3.39930000       2.48307000       0.00000000
C        3.91105000       3.92708000      -0.00045000
C        4.31197000       5.05731000      -0.00077000
H        0.59607000       0.48823000       0.89122000
H        0.62426000      -1.06254000       0.03739000
H        0.57353000       0.45556000      -0.87687000
H        2.87545000      -0.50642000       0.90591000
H        2.73105000      -0.30874000      -2.15065000
H        2.71623000      -1.80337000      -1.19729000
H        4.15525000      -0.77199000      -1.21003000
H        4.66816000       6.06093000      -0.00099000
17
Properties=species:S:1:pos:R:3 energy=-1725.41 pbc="F F F"
C        0.92900000       0.07851000       0.02061000
C        2.44381000      -0.01697000       0.01039000
C        3.10717000       1.34280000      -0.02883000
O        2.49758000       2.40611000      -0.04653000
C        4.60092000       1.31422000      -0.04252000
C        5.37340000       2.36491000      -0.80399000
C        5.38532000       2.37096000       0.69804000
H        0.48366000      -0.92066000       0.04918000
H        0.56120000       0.59183000      -0.87430000
H        0.57578000       0.63583000       0.89494000
H        2.76845000      -0.58473000      -0.86807000
H        2.78336000      -0.54023000       0.91066000
H        5.03151000       0.31643000      -0.04204000
H        4.81909000       3.15146000      -1.30582000
H        6.27617000       2.06043000      -1.31947000
H        6.29628000       2.07054000       1.20154000
H        4.83896000       3.16166000       1.20208000
21
Properties=species:S:1:pos:R:3 energy=-1986.42 pbc="F F F"
C        0.94885000      -0.02100000      -0.05810000
C        2.46073000       0.10272000       0.01078000
C        2.91273000       1.55650000      -0.03913000
O        4.33808000       1.58572000       0.03053000
C        4.83749000       2.92249000       0.02457000
C        6.35834000       2.86652000       0.07298000
C        6.97467000       4.25432000       0.07921000
H        0.65186000      -1.07329000      -0.01559000
H        0.56351000       0.40374000      -0.98991000
H        0.47497000       0.50000000       0.77938000
H        2.91844000      -0.45455000      -0.81635000
H        2.83113000      -0.36637000       0.93096000
H        2.49240000       2.11206000       0.80632000
H        2.58395000       2.02359000      -0.97369000
H        4.44995000       3.46029000       0.89751000
H        4.50611000       3.43419000      -0.88657000
H        6.73298000       2.29670000      -0.78635000
H        6.67876000       2.31288000       0.96416000
H        6.69498000       4.81134000      -0.82050000
H        8.06639000       4.18476000       0.11030000
H        6.64557000       4.82492000       0.95308000
17
Properties=species:S:1:pos:R:3 energy=-1706.3 pbc="F F F"
C        1.75131000      -0.85767000      -1.10352000
C        3.19239000      -1.05160000      -0.74446000
C        3.84986000      -2.19996000      -0.96951000
O        3.74690000       0.02032000      -0.06317000
C        5.00121000       0.52607000      -0.39179000
C        5.44306000       0.50390000      -1.82604000
C        5.71781000       1.12479000       0.56939000
H        1.63656000       0.01502000      -1.75357000
H        1.15581000      -0.69398000      -0.19878000
H        1.33687000      -1.72511000      -1.62782000
H        3.37319000      -3.03649000      -1.46884000
H        4.87541000      -2.33232000      -0.64312000
H        4.62462000       0.80138000      -2.48944000
H        5.79141000      -0.49169000      -2.11692000
H        6.26996000       1.20123000      -2.00127000
H        5.34408000       1.16934000       1.58672000
H        6.67870000       1.58099000       0.36504000
19
Properties=species:S:1:pos:R:3 energy=-1853.29 pbc="F F F"
C        0.78373000      -0.03968000      -0.06883000
C        2.29215000      -0.23704000       0.10332000
C        2.56623000      -0.98341000       1.41303000
O        2.75964000      -1.08302000      -0.95369000
C        3.08139000       1.09583000       0.09610000
C        2.89846000       1.93579000      -1.14461000
C        3.88154000       2.21298000      -2.01185000
H        0.54106000       0.37140000      -1.05408000
H        0.37572000       0.62445000       0.69972000
H        0.25858000      -1.00008000      -0.00831000
H        2.23119000      -0.40930000       2.28270000
H        3.63627000      -1.19240000       1.52561000
H        2.06091000      -1.95598000       1.42289000
H        2.70411000      -0.57277000      -1.78125000
H        4.14968000       0.87407000       0.22108000
H        2.78281000       1.70480000       0.95872000
H        1.91094000       2.35739000      -1.31963000
H        4.88822000       1.83187000      -1.87512000
H        3.69759000       2.83797000      -2.88075000
19
Properties=species:S:1:pos:R:3 energy=-1851.8 pbc="F F F"
C        0.99898000      -0.49374000       0.02430000
C        2.49740000      -0.33065000      -0.21020000
C        2.91233000      -1.07090000      -1.47935000
O        2.81266000       1.04992000      -0.41470000
C        3.04295000       1.88352000       0.65347000
C        3.34515000       3.29218000       0.22599000
C        3.01436000       1.54592000       1.95292000
H        0.67855000       0.03987000       0.92485000
H        0.72818000      -1.54849000       0.13642000
H        0.42463000      -0.07186000      -0.80867000
H        3.07537000      -0.75578000       0.61750000
H        2.39198000      -0.67206000      -2.35768000
H        2.70187000      -2.14237000      -1.40257000
H        3.98451000      -0.93905000      -1.66294000
H        4.24306000       3.31128000      -0.39989000
H        3.51425000       3.95912000       1.07764000
H        2.50971000       3.69574000      -0.35501000
H        2.79488000       0.54746000       2.30632000
H        3.21309000       2.28645000       2.72263000
19
Properties=species:S:1:pos:R:3 energy=-1839.91 pbc="F F F"
C       -0.80863000       0.85132000      -1.34493000
C        0.00386000       0.35985000      -0.16050000
C        1.49269000       0.61807000      -0.35035000
O        2.18526000       0.11395000       0.78957000
C        3.59108000       0.31553000       0.68001000
C        4.22243000      -0.24396000       1.91449000
C        5.02234000       0.44325000       2.74100000
H       -1.87445000       0.66458000      -1.17866000
H       -0.51316000       0.33508000      -2.26429000
H       -0.67184000       1.92723000      -1.49622000
H       -0.16818000      -0.71245000      -0.01071000
H       -0.34017000       0.85181000       0.75677000
H        1.68084000       1.69384000      -0.44704000
H        1.85389000       0.10995000      -1.25231000
H        3.80582000       1.38458000       0.56878000
H        3.97302000      -0.21987000      -0.19637000
H        3.99605000      -1.28318000       2.13739000
H        5.26846000       1.48498000       2.56459000
H        5.44005000      -0.02993000       3.62503000
17
Properties=species:S:1:pos:R:3 energy=-1681.63 pbc="F F F"
C        0.36604000      -0.33082000       1.43415000
C        1.63327000      -0.44580000       0.60626000
C        2.04752000       0.89496000       0.01372000
O        3.23758000       0.69901000      -0.74606000
C        3.69222000       1.91444000      -1.33630000
C        4.91430000       1.64985000      -2.10181000
C        5.91570000       1.43174000      -2.72878000
H        0.09586000      -1.30575000       1.85172000
H       -0.47115000       0.02055000       0.82263000
H        0.50231000       0.36869000       2.26504000
H        1.48634000      -1.17456000      -0.19992000
H        2.44761000      -0.84125000       1.22520000
H        2.23821000       1.61974000       0.81377000
H        1.25564000       1.28214000      -0.63786000
H        3.89557000       2.64972000      -0.54981000
H        2.91535000       2.31301000      -1.99824000
H        6.80298000       1.22765000      -3.28176000
15
Properties=species:S:1:pos:R:3 energy=-1539.55 pbc="F F F"
C        0.51431000      -0.24749000       0.06277000
C        1.96819000      -0.52634000       0.30265000
C        2.45220000      -1.74465000       0.57265000
O        2.83614000       0.58493000       0.36955000
C        2.92628000       1.35945000      -0.75934000
C        3.86289000       2.50097000      -0.49436000
O        2.35642000       1.18079000      -1.82701000
H        0.19593000       0.63018000       0.63461000
H       -0.11217000      -1.08893000       0.37798000
H        0.31543000      -0.06590000      -0.99694000
H        1.81200000      -2.62052000       0.57793000
H        3.50535000      -1.89176000       0.78821000
H        4.84390000       2.11667000      -0.20348000
H        3.45239000       3.14280000       0.28903000
H        3.98045000       3.09289000      -1.40684000
19
Properties=species:S:1:pos:R:3 energy=-1789.35 pbc="F F F"
C        1.38522000      -0.50094000       1.77023000
C        1.82602000      -0.87700000       0.36035000
C        2.29272000      -2.32864000       0.32356000
O        0.69695000      -0.68550000      -0.49766000
C        1.04350000      -0.60928000      -1.88649000
C       -0.24280000      -0.40348000      -2.68126000
O       -0.87276000       0.80985000      -2.27500000
H        1.07408000       0.54991000       1.80362000
H        2.19281000      -0.64502000       2.49483000
H        0.51883000      -1.09513000       2.08511000
H        2.64211000      -0.20898000       0.06112000
H        1.44896000      -3.01595000       0.45753000
H        3.03900000      -2.52903000       1.09985000
H        2.74704000      -2.57048000      -0.64247000
H        1.53241000      -1.53165000      -2.21241000
H        1.71582000       0.24289000      -2.03505000
H       -0.94821000      -1.21942000      -2.49860000
H       -0.03453000      -0.34425000      -3.75312000
H       -0.88536000       0.77380000      -1.29876000
17
Properties=species:S:1:pos:R:3 energy=-1665.78 pbc="F F F"
C        0.96321000      -0.20237000      -0.16237000
C        2.45507000      -0.25694000       0.18698000
C        2.64047000      -0.97582000       1.52539000
O        3.12419000      -1.02548000      -0.81712000
C        3.03897000       1.15961000       0.19930000
C        4.49912000       1.16431000       0.57184000
O        4.97488000       1.94595000       1.39100000
H        0.80507000       0.28347000      -1.13217000
H        0.39168000       0.34544000       0.59412000
H        0.54606000      -1.21204000      -0.25096000
H        2.17962000      -0.41965000       2.34838000
H        3.70034000      -1.12898000       1.75665000
H        2.19308000      -1.97629000       1.49233000
H        2.76215000      -0.78449000      -1.68832000
H        2.49798000       1.79993000       0.90520000
H        2.97294000       1.60821000      -0.79882000
H        5.14847000       0.47275000       0.00781000
17
Properties=species:S:1:pos:R:3 energy=-1661.81 pbc="F F F"
C        1.19027000      -0.35079000       0.30616000
C        2.54390000       0.00922000      -0.30985000
C        2.76358000      -0.80870000      -1.59360000
O        4.11020000      -0.71651000      -2.03268000
C        2.60411000       1.52181000      -0.56457000
C        3.98265000       1.96257000      -0.97195000
O        4.29453000       2.13534000      -2.14839000
H        1.02978000       0.19609000       1.24045000
H        1.13834000      -1.42011000       0.53342000
H        0.36830000      -0.10829000      -0.37537000
H        3.33640000      -0.25168000       0.40449000
H        2.09828000      -0.48699000      -2.40227000
H        2.56512000      -1.86820000      -1.40145000
H        4.20528000       0.10671000      -2.55480000
H        2.34344000       2.08044000       0.34132000
H        1.89368000       1.81788000      -1.34488000
H        4.72768000       2.04405000      -0.16378000
17
Properties=species:S:1:pos:R:3 energy=-1670.74 pbc="F F F"
C        2.35892000      -1.07192000       0.97088000
C        2.52752000      -0.11687000      -0.19409000
C        3.02316000       1.22874000       0.29095000
O        2.28795000       1.98327000       0.93222000
C        4.47335000       1.56607000       0.00786000
C        4.82505000       2.97104000       0.46993000
O        4.82316000       3.03907000       1.89091000
H        2.00644000      -2.04586000       0.61897000
H        1.63285000      -0.68570000       1.69347000
H        3.30688000      -1.21805000       1.49856000
H        1.57670000       0.03511000      -0.71606000
H        3.23510000      -0.52662000      -0.92237000
H        4.63477000       1.48618000      -1.07185000
H        5.09367000       0.82751000       0.52706000
H        4.12971000       3.72201000       0.08005000
H        5.83170000       3.23216000       0.13010000
H        3.88668000       2.95334000       2.16339000
19
Properties=species:S:1:pos:R:3 energy=-1798.07 pbc="F F F"
C        1.02750000      -0.13739000       0.00874000
C        2.55093000      -0.13205000       0.02504000
C        3.12705000       1.29034000       0.07903000
O        2.68962000       1.93975000       1.27820000
C        4.66904000       1.28444000       0.03830000
C        5.24832000       2.69063000      -0.08362000
O        5.18079000       0.68082000       1.23248000
H        0.65558000      -1.16386000      -0.06811000
H        0.64337000       0.42778000      -0.84589000
H        0.61822000       0.30014000       0.92414000
H        2.91814000      -0.64590000      -0.87140000
H        2.88331000      -0.71101000       0.89554000
H        2.74345000       1.86902000      -0.76868000
H        2.80815000       1.30014000       2.00293000
H        5.01591000       0.68330000      -0.80962000
H        4.96758000       3.31557000       0.77069000
H        4.90867000       3.17942000      -1.00141000
H        6.34271000       2.64944000      -0.09445000
H        5.07487000       1.33726000       1.94423000
19
Properties=species:S:1:pos:R:3 energy=-1840.87 pbc="F F F"
C        1.19362000       1.12586000       1.48908000
C        2.68059000       0.84288000       1.44871000
O        3.26554000       1.62804000       0.41453000
C        4.69121000       1.48465000       0.24852000
C        5.32718000       2.39289000      -0.83243000
C        6.53479000       2.55976000       0.10841000
C        5.58638000       2.22516000       1.27378000
H        0.70462000       0.53484000       2.26833000
H        0.73016000       0.89241000       0.52499000
H        1.00863000       2.18750000       1.68243000
H        2.85783000      -0.21824000       1.24238000
H        3.13986000       1.10096000       2.40911000
H        4.97110000       0.43088000       0.11517000
H        4.77468000       3.32136000      -1.01824000
H        5.54351000       1.91019000      -1.78879000
H        7.32120000       1.81255000      -0.04806000
H        6.98618000       3.55451000       0.13198000
H        6.01665000       1.60248000       2.06227000
H        5.11254000       3.10205000       1.72981000
19
Properties=species:S:1:pos:R:3 energy=-1848.09 pbc="F F F"
C        1.16946000      -0.43277000      -0.22069000
C        2.66377000      -0.30392000      -0.48870000
O        2.84620000       0.00050000      -1.87192000
C        3.29440000       0.78696000       0.38758000
C        4.78678000       0.84880000       0.21948000
C        5.65792000       1.29949000       1.36352000
C        5.68323000      -0.13767000       0.92115000
H        0.97199000      -0.68778000       0.82490000
H        0.73406000      -1.20988000      -0.85799000
H        0.64598000       0.49938000      -0.45979000
H        3.14891000      -1.26694000      -0.30055000
H        2.45865000       0.87721000      -2.03935000
H        3.04043000       0.60565000       1.43921000
H        2.88536000       1.76774000       0.11655000
H        5.07132000       1.15873000      -0.78092000
H        5.19663000       1.52448000       2.31854000
H        6.51924000       1.91648000       1.13299000
H        6.55771000      -0.49065000       0.38499000
H        5.23495000      -0.87956000       1.57139000
21
Properties=species:S:1:pos:R:3 energy=-2065.25 pbc="F F F"
C        0.97032000       0.00738000       0.01901000
C        2.50115000       0.00061000      -0.00032000
C        2.98427000       0.11637000      -1.45635000
C        3.07341000       1.13079000       0.86705000
C        4.48175000       0.66325000       1.20267000
C        4.35218000      -0.84410000       1.38673000
C        3.07148000      -1.26701000       0.66242000
H        0.58321000      -0.07318000       1.04094000
H        0.56516000      -0.83272000      -0.55568000
H        0.57548000       0.93447000      -0.41194000
H        4.07527000       0.07414000      -1.53425000
H        2.65478000       1.06037000      -1.90392000
H        2.58225000      -0.70005000      -2.06691000
H        2.49735000       1.24011000       1.79457000
H        3.07620000       2.10074000       0.35965000
H        5.16665000       0.88414000       0.37552000
H        4.87777000       1.15515000       2.09661000
H        5.23084000      -1.36609000       0.99547000
H        4.27387000      -1.09132000       2.45183000
H        3.27240000      -2.06213000      -0.06429000
H        2.36910000      -1.68048000       1.39718000
15
Properties=species:S:1:pos:R:3 energy=-1564.26 pbc="F F F"
C        0.87148000       0.77763000       0.11993000
C        2.17146000       0.57812000      -0.10540000
O        3.11736000       1.50463000       0.25025000
C        4.44230000       1.23645000       0.00933000
C        5.40577000       2.10859000       0.32438000
C        6.80550000       1.85258000       0.08465000
C        7.77003000       2.72617000       0.39608000
H        0.13528000       0.03537000      -0.16780000
H        0.52235000       1.68748000       0.59669000
H        2.54540000      -0.31889000      -0.57878000
H        4.64096000       0.27685000      -0.44749000
H        5.12922000       3.05540000       0.78240000
H        7.07971000       0.90315000      -0.37020000
H        7.55487000       3.68770000       0.85096000
H        8.81098000       2.49076000       0.19762000
19
Properties=species:S:1:pos:R:3 energy=-1867.81 pbc="F F F"
C        2.32556000      -0.75590000       1.29674000
C        2.48441000      -0.00902000      -0.00641000
O        2.05707000      -0.50634000      -1.05090000
C        3.21472000       1.34774000       0.00869000
C        2.93026000       2.09614000      -1.30502000
C        2.73312000       2.21595000       1.17826000
C        4.72278000       1.09416000       0.12476000
H        3.28625000      -0.83937000       1.80875000
H        1.96034000      -1.76714000       1.09287000
H        1.59758000      -0.24623000       1.93187000
H        3.28717000       1.53056000      -2.17356000
H        3.42449000       3.07403000      -1.32156000
H        1.85498000       2.26049000      -1.44070000
H        2.99761000       1.77597000       2.14611000
H        1.64383000       2.33523000       1.15816000
H        3.18265000       3.21479000       1.14232000
H        4.97916000       0.60927000       1.07283000
H        5.28801000       2.03124000       0.06942000
H        5.07585000       0.43908000      -0.68003000
19
Properties=species:S:1:pos:R:3 energy=-1898.54 pbc="F F F"
C        1.00000000       0.00000000       0.00000000
C        2.44400000       0.00000000       0.00000000
C        3.63416000       0.00000000       0.00000000
C        5.07816000       0.00000000       0.00000000
C        5.59382000      -0.71096000       1.26064000
C        5.59893000      -0.73496000      -1.24390000
C        5.59645000       1.44618000      -0.01160000
H        0.60603000       1.02088000       0.01168000
H        0.60603000      -0.52056000       0.87827000
H        0.60603000      -0.50032000      -0.88995000
H        5.24510000      -0.21078000       2.17250000
H        6.68937000      -0.72741000       1.28799000
H        5.24339000      -1.74936000       1.30549000
H        5.25111000      -0.25516000      -2.16680000
H        5.25270000      -1.77543000      -1.26774000
H        6.69484000      -0.74803000      -1.26775000
H        5.25409000       1.98611000      -0.90271000
H        6.69202000       1.47557000      -0.00444000
H        5.24223000       2.00474000       0.86319000
13
Properties=species:S:1:pos:R:3 energy=-1388.3 pbc="F F F"
C        0.99941000      -0.05797000      -0.00210000
C        2.52000000       0.00000000       0.00000000
O        3.00420000      -0.68162000      -1.15312000
C        3.00202000       1.36117000       0.00000000
C        3.39930000       2.48307000       0.00000000
C        3.91026000       3.92719000      -0.00048000
C        4.31121000       5.05805000      -0.00073000
H        0.57746000       0.43411000       0.88047000
H        0.65662000      -1.09830000      -0.01996000
H        0.58448000       0.42484000      -0.89489000
H        2.89796000      -0.53761000       0.87569000
H        2.76522000      -0.14120000      -1.92540000
H        4.66873000       6.06122000      -0.00053000
19
Properties=species:S:1:pos:R:3 energy=-1850.2 pbc="F F F"
C        1.37175000       0.53300000       0.31701000
C        2.50498000       1.54206000       0.28605000
O        3.68672000       0.86649000      -0.14049000
C        4.87203000       1.57133000      -0.22099000
C        5.99628000       0.68249000      -0.67805000
C        5.01073000       2.88482000       0.05275000
C        6.26832000       3.69555000       0.01621000
H        0.43868000       1.00459000       0.63740000
H        1.60619000      -0.28843000       1.00206000
H        1.22265000       0.08975000      -0.67302000
H        2.64613000       1.95442000       1.29163000
H        2.25501000       2.34423000      -0.41758000
H        5.67977000       0.10188000      -1.55198000
H        6.26451000      -0.01974000       0.11784000
H        6.89546000       1.22700000      -0.97329000
H        4.14597000       3.46920000       0.35218000
H        7.17778000       3.09417000      -0.03780000
H        6.33756000       4.29785000       0.92841000
H        6.24730000       4.37768000      -0.83914000
21
Properties=species:S:1:pos:R:3 energy=-1988.56 pbc="F F F"
C        2.20963000       0.75653000       0.10026000
C        3.43638000       1.47002000       0.63811000
O        4.55142000       1.08811000      -0.16027000
C        5.82638000       1.65109000       0.18114000
C        6.27002000       1.23059000       1.58671000
C        6.80864000       1.06452000      -0.84279000
C        5.82420000       3.17765000       0.04382000
H        1.32127000       1.01655000       0.68230000
H        2.34952000      -0.32861000       0.13399000
H        2.03694000       1.02383000      -0.94711000
H        3.59175000       1.17811000       1.68051000
H        3.27543000       2.55030000       0.58162000
H        5.65363000       1.69983000       2.36158000
H        7.31049000       1.51494000       1.78048000
H        6.17457000       0.14658000       1.71848000
H        6.50695000       1.32338000      -1.86444000
H        6.81766000      -0.03049000      -0.79083000
H        7.83001000       1.42624000      -0.68220000
H        5.41005000       3.48215000      -0.92429000
H        6.83548000       3.58982000       0.13548000
H        5.20746000       3.65111000       0.81585000
17
Properties=species:S:1:pos:R:3 energy=-1689.02 pbc="F F F"
C        0.94919000       0.10142000      -0.12538000
C        2.46141000       0.01596000      -0.06034000
O        2.98889000       1.33937000      -0.05931000
C        4.41401000       1.33855000       0.00000000
C        4.89602000       2.69973000       0.00000000
C        5.29331000       3.82162000       0.00000000
C        5.77049000       5.20347000      -0.00032000
H        0.50238000      -0.89637000      -0.12806000
H        0.63214000       0.63358000      -1.02790000
H        0.55815000       0.66204000       0.72955000
H        2.84044000      -0.53363000      -0.92936000
H        2.76533000      -0.50506000       0.85450000
H        4.81162000       0.79573000      -0.86498000
H        4.73783000       0.82197000       0.91062000
H        4.97031000       5.89253000      -0.28891000
H        6.59777000       5.33026000      -0.70596000
H        6.12555000       5.49374000       0.99370000
13
Properties=species:S:1:pos:R:3 energy=-1378.51 pbc="F F F"
C        2.17891000       3.14199000      -0.85207000
C        3.22123000       2.32090000      -0.71119000
O        4.46188000       2.78570000      -0.36000000
C        5.50337000       1.90005000      -0.23403000
C        6.72947000       2.31266000       0.09614000
C        7.82615000       1.33875000       0.22153000
O        8.96070000       1.68976000       0.51961000
H        1.20228000       2.76245000      -1.13116000
H        2.28471000       4.20985000      -0.69090000
H        3.14072000       1.25425000      -0.86667000
H        5.24887000       0.86610000      -0.42202000
H        6.96665000       3.35280000       0.28049000
H        7.57040000       0.28277000       0.03281000
11
Properties=species:S:1:pos:R:3 energy=-1263.34 pbc="F F F"
C        1.00000000       0.00000000       0.00000000
C        2.44400000       0.00000000       0.00000000
C        3.63416000       0.00000000       0.00000000
C        5.28689000      -0.00000000      -0.00000000
C        6.51527000      -0.00000000      -0.00001000
C        7.98426000      -0.00000000      -0.00000000
C        9.20477000       0.00000000       0.00000000
H        0.40848000       0.94298000       0.08567000
H        0.49472000      -0.41807000       0.89148000
H        0.37750000      -0.43499000      -0.81260000
H       10.23937000       0.00000000       0.00000000
15
Properties=species:S:1:pos:R:3 energy=-1529.06 pbc="F F F"
C        1.02662000       0.11062000      -0.17700000
C        2.53272000       0.17356000      -0.19796000
O        3.20617000      -0.82599000      -0.45783000
C        3.22997000       1.46833000       0.10228000
C        2.55965000       2.62291000       0.24473000
C        4.72307000       1.37207000       0.24436000
O        5.31009000       0.93284000      -0.97342000
H        0.60547000       0.78029000      -0.92931000
H        0.65716000       0.36273000       0.82100000
H        0.70648000      -0.90875000      -0.41223000
H        1.48309000       2.70802000       0.14177000
H        3.09061000       3.54767000       0.45743000
H        4.99630000       0.67378000       1.04326000
H        5.16650000       2.34143000       0.49258000
H        4.94162000       0.03878000      -1.13338000
17
Properties=species:S:1:pos:R:3 energy=-1671.52 pbc="F F F"
C        2.49057000      -0.92566000       1.14196000
C        2.08122000       0.25188000       0.29430000
O        0.95269000       0.30173000      -0.20052000
C        3.09248000       1.41060000       0.15185000
C        3.05650000       1.94210000      -1.28061000
C        2.71622000       2.51187000       1.14298000
O        4.43577000       1.00312000       0.40363000
H        3.36779000      -1.41041000       0.70681000
H        1.67459000      -1.65341000       1.17770000
H        2.70540000      -0.58964000       2.15949000
H        3.31210000       1.14933000      -1.99366000
H        3.79395000       2.74087000      -1.42130000
H        2.06883000       2.33174000      -1.54987000
H        2.75089000       2.13775000       2.17311000
H        1.70578000       2.89349000       0.96067000
H        3.42265000       3.34778000       1.08809000
H        4.57063000       0.94493000       1.36494000
15
Properties=species:S:1:pos:R:3 energy=-1539.75 pbc="F F F"
C        1.73486000      -1.68447000       0.79067000
C        3.05526000      -1.03789000       1.11325000
O        3.60286000      -1.20727000       2.20360000
C        3.64246000      -0.12241000       0.05597000
C        5.16060000      -0.06292000       0.15097000
C        5.79949000      -1.35240000      -0.30249000
O        5.20488000      -2.23501000      -0.91421000
H        0.99891000      -0.91381000       0.54959000
H        1.38104000      -2.25211000       1.65546000
H        1.85903000      -2.36635000      -0.05394000
H        3.21548000       0.87406000       0.21490000
H        3.32879000      -0.47099000      -0.93433000
H        5.49211000       0.13705000       1.17510000
H        5.54778000       0.73492000      -0.49129000
H        6.87999000      -1.43999000      -0.09628000
15
Properties=species:S:1:pos:R:3 energy=-1494.62 pbc="F F F"
C        0.99865000      -0.05909000       0.00588000
C        2.52000000       0.00000000       0.00000000
O        2.99840000      -0.67387000      -1.16068000
C        3.00202000       1.36117000       0.00000000
C        3.39930000       2.48307000       0.00000000
C        3.88132000       3.84424000       0.00000000
O        2.85152000       4.70899000      -0.45745000
H        0.58263000       0.42711000       0.89353000
H        0.65783000      -1.09921000      -0.01641000
H        0.57964000       0.42870000      -0.88133000
H        2.90419000      -0.54151000       0.87048000
H        2.77498000      -0.10942000      -1.92076000
H        4.74477000       3.95533000      -0.66306000
H        4.17445000       4.15817000       1.00649000
H        3.21893000       5.60769000      -0.44502000
17
Properties=species:S:1:pos:R:3 energy=-1755.16 pbc="F F F"
C        1.00000000       0.00000000       0.00000000
C        2.44400000       0.00000000       0.00000000
C        3.63416000       0.00000000       0.00000000
C        5.07816000       0.00000000       0.00000000
C        5.62238000       1.40996000      -0.04510000
C        5.48308000       2.14240000      -1.35159000
C        6.23269000       1.97329000       1.01218000
H        0.60612000       1.02094000       0.01054000
H        0.60591000      -0.51953000       0.87882000
H        0.60595000      -0.50120000      -0.88942000
H        5.46592000      -0.56269000      -0.85751000
H        5.44558000      -0.52199000       0.89222000
H        5.96289000       1.57649000      -2.15699000
H        5.95163000       3.13202000      -1.31881000
H        4.42812000       2.28504000      -1.60637000
H        6.34145000       1.44373000       1.95432000
H        6.63078000       2.98261000       0.96786000
15
Properties=species:S:1:pos:R:3 energy=-1600.33 pbc="F F F"
C        1.00000000       0.00000000       0.00000000
C        2.44400000       0.00000000       0.00000000
C        3.63416000       0.00000000       0.00000000
C        5.07816000       0.00000000       0.00000000
C        5.56018000       1.36117000       0.00000000
C        5.95746000       2.48307000       0.00000000
C        6.43948000       3.84424000       0.00000000
H        0.60590000       1.02127000       0.01168000
H        0.60579000      -0.52070000       0.87860000
H        0.60579000      -0.50046000      -0.89027000
H        5.45592000      -0.53452000      -0.87856000
H        5.45592000      -0.53452000       0.87856000
H        5.64536000       4.54365000      -0.28162000
H        7.26357000       3.97061000      -0.70940000
H        6.80381000       4.13331000       0.99076000
19
Properties=species:S:1:pos:R:3 energy=-1776.51 pbc="F F F"
C        1.92983000       3.58428000      -0.12236000
C        2.67769000       2.26837000      -0.20273000
O        4.07673000       2.54136000      -0.16495000
C        4.84577000       1.33913000      -0.20842000
C        6.32947000       1.68774000      -0.23254000
O        7.09728000       0.48500000      -0.27949000
C        8.49028000       0.76046000      -0.35044000
H        0.84950000       3.42221000      -0.16778000
H        2.22358000       4.24626000      -0.94338000
H        2.16955000       4.10664000       0.80958000
H        2.42802000       1.75551000      -1.13821000
H        2.40013000       1.62950000       0.64311000
H        4.58799000       0.75801000      -1.10258000
H        4.62201000       0.72031000       0.66852000
H        6.59115000       2.26492000       0.66046000
H        6.54913000       2.30969000      -1.10903000
H        9.02889000      -0.19073000      -0.36065000
H        8.81342000       1.33621000       0.52238000
H        8.72532000       1.30489000      -1.26963000
19
Properties=species:S:1:pos:R:3 energy=-1785.2 pbc="F F F"
C        5.68944000      -2.54201000       0.07825000
C        5.63310000      -1.44589000      -0.96757000
O        6.23932000      -0.27531000      -0.42365000
C        6.18433000       0.82468000      -1.33156000
C        6.57612000       2.09320000      -0.58237000
O        6.97355000       0.61322000      -2.50099000
C        8.36648000       0.49031000      -2.25536000
H        5.24296000      -3.46608000      -0.30072000
H        5.15473000      -2.23783000       0.98438000
H        6.72509000      -2.74368000       0.37148000
H        4.58935000      -1.23967000      -1.22900000
H        6.17230000      -1.76646000      -1.86530000
H        5.14841000       0.95131000      -1.66865000
H        7.55614000       1.98819000      -0.10355000
H        5.86001000       2.30036000       0.22034000
H        6.62003000       2.95305000      -1.25800000
H        8.84048000       0.12161000      -3.17006000
H        8.57560000      -0.22069000      -1.45051000
H        8.80236000       1.46686000      -2.02345000
21
Properties=species:S:1:pos:R:3 energy=-2048.44 pbc="F F F"
C        0.98091000      -0.01090000       0.11947000
C        2.49353000       0.00812000       0.03335000
C        3.22453000       1.06502000       0.89844000
C        4.31578000      -0.00474000       1.20011000
C        4.76447000      -0.04006000       2.65753000
C        5.51336000       0.03511000       0.24929000
C        3.24849000      -1.07994000       0.83757000
H        0.57670000      -0.88091000      -0.40844000
H        0.55819000       0.88775000      -0.34147000
H        0.63452000      -0.05381000       1.15740000
H        2.81450000       0.04208000      -1.01715000
H        2.65585000       1.38927000       1.77888000
H        3.55970000       1.95701000       0.36070000
H        3.91037000      -0.06807000       3.34261000
H        5.35872000       0.84625000       2.90440000
H        5.37782000      -0.92559000       2.85572000
H        5.20400000       0.05893000      -0.80067000
H        6.14747000      -0.84723000       0.38667000
H        6.12571000       0.92419000       0.43342000
H        3.60302000      -1.93218000       0.25032000
H        2.68806000      -1.46607000       1.69793000
17
Properties=species:S:1:pos:R:3 energy=-1653.93 pbc="F F F"
C        3.60684000      -1.28139000      -0.51813000
C        2.80854000      -0.20283000       0.19774000
O        2.87094000      -0.41958000       1.61580000
C        3.24945000       1.24686000      -0.12831000
O        2.40671000       2.14315000       0.60151000
C        4.69669000       1.54304000       0.19056000
C        5.15567000       2.43976000       1.07634000
H        3.59256000      -1.13322000      -1.60231000
H        3.18539000      -2.26864000      -0.29776000
H        4.64687000      -1.31133000      -0.17598000
H        1.75057000      -0.30748000      -0.07028000
H        3.80263000      -0.32006000       1.88379000
H        3.08757000       1.44550000      -1.19376000
H        2.22323000       1.69435000       1.44972000
H        5.43011000       0.98361000      -0.38691000
H        4.48368000       3.05825000       1.66393000
H        6.22145000       2.59191000       1.21566000
17
Properties=species:S:1:pos:R:3 energy=-1683.49 pbc="F F F"
C        2.24066000       0.62463000       2.05248000
C        2.27728000       0.92014000       0.56479000
O        3.02248000       2.12119000       0.31661000
C        4.37194000       1.96829000       0.19512000
O        4.97321000       0.90691000       0.28081000
C        5.00419000       3.31548000      -0.06012000
C        6.51728000       3.22718000      -0.15446000
H        1.61506000      -0.24829000       2.25956000
H        1.84502000       1.48290000       2.60577000
H        3.24639000       0.43261000       2.43988000
H        1.25993000       1.09439000       0.19966000
H        2.68269000       0.07516000      -0.00329000
H        4.73240000       3.98710000       0.76123000
H        4.60320000       3.71447000      -0.99777000
H        6.94609000       2.82676000       0.77013000
H        6.94674000       4.21816000      -0.33013000
H        6.82220000       2.57110000      -0.97639000
13
Properties=species:S:1:pos:R:3 energy=-1374.78 pbc="F F F"
C        0.48197000      -0.56978000       0.27308000
C        1.93680000      -0.41572000      -0.12964000
O        2.30804000       0.96893000      -0.12612000
C        2.04879000       1.64512000      -1.27450000
O        1.53559000       1.19537000      -2.28734000
C        2.45034000       3.02791000      -1.19043000
C        2.78263000       4.18055000      -1.12231000
H        0.20314000      -1.62603000       0.32331000
H       -0.17904000      -0.06742000      -0.44022000
H        0.30336000      -0.11013000       1.25072000
H        2.13464000      -0.87915000      -1.10320000
H        2.57596000      -0.92087000       0.60187000
H        3.07531000       5.20329000      -1.06546000
21
Properties=species:S:1:pos:R:3 energy=-2050.01 pbc="F F F"
C        4.16857000      -1.47490000       1.36072000
C        4.13943000      -0.86657000      -0.03183000
C        3.95353000       0.62269000       0.02255000
C        4.91077000       1.57167000      -0.01691000
C        6.38784000       1.29479000      -0.10045000
C        4.53106000       3.03705000       0.01905000
C        4.59522000       3.61322000       1.42641000
H        4.26170000      -2.56369000       1.29597000
H        3.25189000      -1.24601000       1.91466000
H        5.01907000      -1.09752000       1.93867000
H        3.30542000      -1.29764000      -0.59911000
H        5.04601000      -1.14161000      -0.57979000
H        2.91374000       0.94040000       0.10249000
H        6.63200000       0.23089000      -0.05328000
H        6.91323000       1.77867000       0.72917000
H        6.79117000       1.68734000      -1.03967000
H        3.51767000       3.17824000      -0.37492000
H        5.19247000       3.60604000      -0.64491000
H        3.90720000       3.08809000       2.09928000
H        4.31060000       4.67071000       1.41424000
H        5.60395000       3.54112000       1.84681000
17
Properties=species:S:1:pos:R:3 energy=-1630.89 pbc="F F F"
C        1.77769000      -0.62071000      -0.05094000
O        1.74067000       0.76671000       0.26092000
C        3.02221000       1.40258000       0.14375000
C        3.34418000       2.01575000      -1.18663000
C        3.01045000       2.89366000      -0.01418000
O        4.12684000       0.82377000       0.85525000
C        4.01669000       0.96600000       2.26587000
H        2.30693000      -0.79834000      -0.99185000
H        0.75041000      -0.97802000      -0.15383000
H        2.25897000      -1.17364000       0.76169000
H        2.61148000       1.92794000      -1.97763000
H        4.37378000       1.98351000      -1.52016000
H        3.81395000       3.46313000       0.43419000
H        2.04878000       3.39131000      -0.00821000
H        4.77506000       0.33331000       2.73291000
H        3.03234000       0.64800000       2.61969000
H        4.20142000       2.00433000       2.55240000
19
Properties=species:S:1:pos:R:3 energy=-1837.65 pbc="F F F"
C        1.83956000      -0.62391000      -1.18442000
O        1.68821000       0.47372000      -0.29302000
C        2.92783000       1.12161000       0.07603000
C        3.76384000       0.35617000       1.05577000
C        3.56849000       2.01623000      -0.95698000
C        2.80112000       2.62999000       0.18280000
C        3.50629000       3.42912000       1.22424000
H        2.44181000      -0.34589000      -2.05402000
H        0.84636000      -0.92217000      -1.53090000
H        2.29416000      -1.47322000      -0.66749000
H        4.70162000       0.86709000       1.29391000
H        4.02943000      -0.62653000       0.65480000
H        3.21042000       0.20670000       1.98815000
H        3.12101000       2.06986000      -1.94293000
H        4.64881000       2.10126000      -0.96339000
H        1.82402000       3.05085000      -0.03303000
H        4.56176000       3.15814000       1.32283000
H        3.02227000       3.29329000       2.19630000
H        3.46154000       4.49305000       0.97003000
17
Properties=species:S:1:pos:R:3 energy=-1636.66 pbc="F F F"
C        1.90868000      -0.69456000      -1.25177000
O        1.71294000       0.40311000      -0.36917000
C        2.93655000       1.03997000       0.07123000
C        3.74603000       0.24456000       1.04908000
C        3.60151000       1.97566000      -0.90428000
C        2.81952000       2.53901000       0.24597000
O        3.60980000       3.15179000       1.27747000
H        2.57568000      -0.42358000      -2.07533000
H        0.93774000      -0.97571000      -1.66862000
H        2.31191000      -1.55214000      -0.70647000
H        4.63914000       0.78252000       1.38430000
H        4.08577000      -0.69342000       0.59908000
H        3.14380000       0.00385000       1.93105000
H        3.17410000       2.07488000      -1.89428000
H        4.68119000       2.05916000      -0.87757000
H        1.84794000       2.97532000       0.03445000
H        3.63339000       4.11783000       1.16678000
19
Properties=species:S:1:pos:R:3 energy=-1857.18 pbc="F F F"
C        2.00408000      -0.23069000      -1.50830000
O        2.22279000       0.18447000      -0.16707000
C        2.96755000       1.39014000      -0.07322000
C        2.17015000       2.62491000      -0.47633000
C        2.93652000       3.76571000       0.17418000
C        3.50594000       3.18670000       1.46832000
C        3.29789000       1.67665000       1.38840000
H        1.48814000      -1.19457000      -1.48773000
H        2.95556000      -0.35727000      -2.03349000
H        1.37117000       0.48575000      -2.03928000
H        3.89708000       1.31262000      -0.65227000
H        1.14537000       2.56868000      -0.08935000
H        2.10259000       2.74379000      -1.56207000
H        3.75800000       4.08457000      -0.47838000
H        2.30068000       4.63752000       0.35584000
H        4.56872000       3.43542000       1.56230000
H        2.99478000       3.59750000       2.34536000
H        4.18054000       1.12063000       1.72120000
H        2.47010000       1.37178000       2.04096000
17
Properties=species:S:1:pos:R:3 energy=-1718.98 pbc="F F F"
C        1.00362000       0.12617000      -0.15361000
O        2.41821000       0.06955000      -0.28413000
C        3.07764000       1.26534000      -0.19220000
C        4.40441000       1.37164000      -0.30302000
C        4.86125000       2.77820000      -0.11928000
C        3.55843000       3.57398000      -0.20076000
C        2.42672000       2.58300000       0.08379000
H        0.61866000      -0.89634000      -0.20961000
H        0.55949000       0.69849000      -0.97427000
H        0.71220000       0.54395000       0.81538000
H        5.07025000       0.53746000      -0.47221000
H        5.34546000       2.89705000       0.85532000
H        5.55999000       3.08542000      -0.90280000
H        3.44131000       3.98688000      -1.21144000
H        3.54887000       4.41983000       0.49446000
H        1.57281000       2.78807000      -0.56791000
H        2.10597000       2.64255000       1.12932000
17
Properties=species:S:1:pos:R:3 energy=-1656.58 pbc="F F F"
C        1.95884000      -0.13312000      -1.59925000
O        2.20703000       0.36092000      -0.29200000
C        3.06928000       1.48937000      -0.28913000
C        2.31599000       2.76182000      -0.65683000
C        2.98434000       3.80133000       0.20397000
C        3.26296000       3.01159000       1.46055000
O        3.60662000       1.69216000       1.02816000
H        1.29760000      -1.00038000      -1.51852000
H        2.89209000      -0.45270000      -2.07313000
H        1.46315000       0.62262000      -2.21556000
H        3.92599000       1.32282000      -0.95320000
H        1.25353000       2.67470000      -0.39693000
H        2.37275000       2.98785000      -1.72599000
H        3.92612000       4.11676000      -0.26000000
H        2.36948000       4.68734000       0.38079000
H        4.08151000       3.43258000       2.05071000
H        2.37237000       2.94120000       2.09483000
21
Properties=species:S:1:pos:R:3 energy=-2050.36 pbc="F F F"
C        1.74173000      -0.47395000       1.21406000
C        2.63381000      -0.17618000       0.01902000
C        3.01249000       1.27551000      -0.03658000
C        4.27364000       1.72586000       0.05148000
C        4.65224000       3.18485000      -0.01862000
C        5.31800000       3.62247000       1.28519000
C        5.58150000       3.43204000      -1.20639000
H        1.45555000      -1.53024000       1.21711000
H        0.82522000       0.12419000       1.18451000
H        2.25877000      -0.26048000       2.15525000
H        2.10416000      -0.43579000      -0.90497000
H        3.52487000      -0.81371000       0.06567000
H        2.19555000       1.98325000      -0.16888000
H        5.08869000       1.01455000       0.17973000
H        3.75210000       3.79664000      -0.16064000
H        6.24091000       3.06234000       1.47514000
H        4.64852000       3.46750000       2.13893000
H        5.57276000       4.68750000       1.25103000
H        6.51432000       2.86392000      -1.11387000
H        5.84106000       4.49375000      -1.28062000
H        5.10169000       3.13979000      -2.14731000
15
Properties=species:S:1:pos:R:3 energy=-1489.8 pbc="F F F"
C        3.90591000      -1.10544000       0.00095000
O        2.90308000      -0.09745000      -0.06495000
C        3.32455000       1.20187000      -0.10169000
C        4.57381000       1.69296000      -0.09119000
C        4.92203000       3.11733000      -0.13186000
C        4.90347000       3.90361000       1.15536000
O        6.12722000       3.61717000       0.46959000
H        3.40473000      -2.07777000       0.02790000
H        4.50057000      -1.00655000       0.91497000
H        4.54587000      -1.07942000      -0.88676000
H        2.45449000       1.84922000      -0.14283000
H        5.42469000       1.01986000      -0.05270000
H        4.59655000       3.62651000      -1.03398000
H        4.72546000       3.38782000       2.09051000
H        4.54045000       4.92291000       1.12662000
17
Properties=species:S:1:pos:R:3 energy=-1633.64 pbc="F F F"
C        4.14580000      -0.77997000       0.27372000
O        3.66936000       0.24548000       1.13328000
C        3.44456000       1.48961000       0.45830000
C        2.54161000       2.32517000       1.36045000
C        4.75126000       2.19107000       0.23409000
C        5.40720000       2.22141000      -1.12452000
O        4.67601000       3.34462000      -0.61801000
H        4.20660000      -1.70775000       0.85018000
H        5.14703000      -0.54174000      -0.09706000
H        3.45840000      -0.93732000      -0.56369000
H        2.91643000       1.30816000      -0.48584000
H        3.01335000       2.50343000       2.33393000
H        1.60080000       1.79874000       1.55474000
H        2.31244000       3.29606000       0.90820000
H        5.36760000       2.25723000       1.12089000
H        4.96217000       1.66537000      -1.93912000
H        6.48508000       2.30776000      -1.17046000
17
Properties=species:S:1:pos:R:3 energy=-1707.42 pbc="F F F"
C        5.10328000      -0.33515000      -0.45776000
O        3.71372000      -0.03764000      -0.53657000
C        3.30902000       1.19213000      -0.08810000
C        4.04874000       2.20116000       0.39666000
C        3.53360000       3.48149000       0.86557000
C        2.04857000       3.72622000       0.87590000
C        4.38589000       4.42823000       1.29265000
H        5.25372000      -1.34672000      -0.84535000
H        5.44750000      -0.31702000       0.58119000
H        5.68787000       0.35361000      -1.07580000
H        2.23010000       1.24126000      -0.18784000
H        5.12849000       2.08693000       0.45828000
H        1.63912000       3.67702000      -0.13883000
H        1.80038000       4.71507000       1.27859000
H        1.53738000       2.98620000       1.50116000
H        5.46140000       4.28096000       1.29890000
H        4.02829000       5.38909000       1.65024000
15
Properties=species:S:1:pos:R:3 energy=-1552.41 pbc="F F F"
C        1.02812000       0.07861000      -0.60284000
O        2.36258000      -0.06286000      -0.12268000
C        3.04698000       1.12386000      -0.13175000
C        4.37554000       1.16827000       0.00000000
C        5.07854000       2.38590000       0.00000000
C        5.67362000       3.41661000       0.00000000
C        6.39562000       4.66715000       0.00000000
H        0.56126000      -0.91042000      -0.60455000
H        1.02185000       0.46443000      -1.62798000
H        0.44610000       0.73227000       0.05559000
H        2.43800000       2.01306000      -0.23525000
H        4.93689000       0.24593000       0.11020000
H        5.71554000       5.51475000      -0.12899000
H        7.12790000       4.69940000      -0.81258000
H        6.93443000       4.81111000       0.94155000
17
Properties=species:S:1:pos:R:3 energy=-1692.18 pbc="F F F"
C        1.18109000      -0.57564000       0.21377000
O        2.48780000      -0.16351000       0.59172000
C        2.74257000       1.20615000       0.27544000
C        2.33493000       2.04647000       1.45427000
C        1.47122000       3.07122000       1.40672000
C        4.22103000       1.31375000       0.02608000
C        4.78121000       1.73125000      -1.11832000
H        1.06825000      -1.63268000       0.46993000
H        1.03927000      -0.46511000      -0.86602000
H        0.42087000      -0.00436000       0.75504000
H        2.19282000       1.49816000      -0.62937000
H        2.77467000       1.77444000       2.41132000
H        0.99876000       3.37796000       0.47955000
H        1.22086000       3.62411000       2.30663000
H        4.86931000       1.00410000       0.84292000
H        4.18221000       2.03357000      -1.97108000
H        5.86112000       1.76593000      -1.22396000
19
Properties=species:S:1:pos:R:3 energy=-1844.87 pbc="F F F"
C        1.47425000      -0.10602000      -0.78271000
O        2.36512000       0.12939000       0.30595000
C        3.05593000       1.32374000       0.15700000
C        2.21149000       2.56483000       0.25929000
C        4.40187000       1.30896000       0.05425000
C        5.19729000       0.02708000       0.06147000
C        5.25502000       2.54120000      -0.09236000
H        1.09231000      -1.12697000      -0.68976000
H        1.99271000      -0.02131000      -1.74411000
H        0.62112000       0.57879000      -0.74687000
H        1.34328000       2.38311000       0.90249000
H        1.85073000       2.86332000      -0.72974000
H        2.75224000       3.40399000       0.70560000
H        4.57839000      -0.86671000       0.18276000
H        5.91942000       0.03871000       0.88478000
H        5.74715000      -0.08043000      -0.87952000
H        4.67782000       3.44875000      -0.28517000
H        5.94339000       2.42443000      -0.93668000
H        5.84711000       2.69929000       0.81480000
15
Properties=species:S:1:pos:R:3 energy=-1547.88 pbc="F F F"
C        1.42258000      -0.38917000      -0.83668000
O        2.48977000      -0.21360000       0.09239000
C        3.03900000       1.06354000       0.06657000
C        2.08758000       2.21853000       0.22476000
C        4.37554000       1.16827000       0.00000000
C        5.07854000       2.38590000       0.00000000
C        5.67362000       3.41661000       0.00000000
H        1.20214000      -1.45891000      -0.89707000
H        1.70545000      -0.04150000      -1.83614000
H        0.51831000       0.12212000      -0.49230000
H        1.35608000       1.99877000       1.00988000
H        1.55016000       2.40437000      -0.71042000
H        2.58957000       3.14740000       0.51040000
H        4.96494000       0.25776000      -0.06706000
H        6.20688000       4.33857000       0.00132000
17
Properties=species:S:1:pos:R:3 energy=-1679.87 pbc="F F F"
C        1.09360000      -0.30176000       0.01611000
O        2.48627000      -0.03634000       0.01752000
C        2.89401000       1.33855000       0.00000000
C        2.39941000       2.04866000      -1.26815000
C        2.39903000       2.08003000       1.25107000
C        4.33801000       1.33855000       0.00000000
C        5.52817000       1.33855000       0.00000000
H        0.96045000      -1.38751000       0.03366000
H        0.61515000       0.07551000      -0.89086000
H        0.60708000       0.10573000       0.90545000
H        2.65794000       1.47410000      -2.16648000
H        2.83475000       3.05060000      -1.36840000
H        1.30977000       2.16464000      -1.26931000
H        2.65778000       1.52743000       2.16209000
H        1.31000000       2.19539000       1.24856000
H        2.83445000       3.08338000       1.32578000
H        6.59344000       1.32734000       0.00015000
17
Properties=species:S:1:pos:R:3 energy=-1673.89 pbc="F F F"
C       -1.78793000       0.94655000       0.36075000
C       -1.41227000      -0.42709000      -0.11912000
C       -0.35917000      -1.32369000       0.40249000
C        0.74340000      -0.68024000      -0.35427000
C        2.01758000      -0.11621000       0.10288000
C        0.83332000       0.82103000       0.03380000
C       -0.60802000       0.78453000      -0.57458000
H       -2.69102000       1.39137000      -0.04319000
H       -1.61030000       1.18783000       1.40154000
H       -2.04805000      -0.90756000      -0.85378000
H       -0.24282000      -1.25168000       1.48745000
H       -0.50794000      -2.36635000       0.10990000
H        0.75790000      -1.00075000      -1.39742000
H        2.38909000      -0.41452000       1.07630000
H        2.80394000       0.03345000      -0.62933000
H        0.76478000       1.24831000       1.03828000
H       -0.73226000       1.13215000      -1.59682000
17
Properties=species:S:1:pos:R:3 energy=-1684.45 pbc="F F F"
C        2.28106000       0.16902000       2.41967000
O        3.37324000       1.01255000       2.08075000
C        3.12583000       1.86343000       0.94896000
C        2.11416000       2.95445000       1.30513000
C        4.48270000       2.46273000       0.54280000
C        4.42530000       3.20767000      -0.72454000
C        4.38648000       3.82621000      -1.75447000
H        2.63110000      -0.56016000       3.15569000
H        1.91345000      -0.37195000       1.54279000
H        1.47411000       0.74743000       2.87705000
H        2.73967000       1.25415000       0.12141000
H        2.43401000       3.50672000       2.19525000
H        1.13517000       2.52233000       1.53482000
H        1.97158000       3.66187000       0.48295000
H        5.21790000       1.65289000       0.45092000
H        4.85920000       3.10922000       1.34533000
H        4.35603000       4.37957000      -2.66401000
19
Properties=species:S:1:pos:R:3 energy=-1842.09 pbc="F F F"
C        0.93327000       0.59196000       1.17219000
O        2.34867000       0.68904000       1.09748000
C        2.76154000       1.48610000      -0.01130000
C        4.25705000       1.53766000       0.01151000
C        5.06416000       2.61806000       0.02766000
C        4.60483000       4.04927000       0.02551000
C        6.56149000       2.45119000       0.06018000
H        0.67592000      -0.02808000       2.03496000
H        0.53338000       0.11918000       0.27000000
H        0.48736000       1.58162000       1.30870000
H        2.29835000       2.47334000       0.05934000
H        2.43422000       1.00985000      -0.94219000
H        4.71625000       0.55042000       0.02169000
H        3.52049000       4.16144000      -0.02268000
H        5.02380000       4.57648000      -0.83850000
H        4.94704000       4.55414000       0.93540000
H        6.86394000       1.39876000       0.06371000
H        6.97522000       2.91870000       0.95963000
H        7.01419000       2.92360000      -0.81775000
21
Properties=species:S:1:pos:R:3 energy=-1984.45 pbc="F F F"
C        2.37316000      -0.64858000       0.32980000
O        3.69731000      -0.18010000       0.11554000
C        3.76842000       1.24509000       0.16493000
C        5.21975000       1.72112000      -0.06807000
C        6.14823000       1.14912000       1.01624000
C        5.71785000       1.25606000      -1.44691000
C        5.25759000       3.25648000      -0.00786000
H        2.38172000      -1.74056000       0.27949000
H        1.70158000      -0.26826000      -0.44608000
H        2.01538000      -0.34723000       1.31920000
H        3.41335000       1.58729000       1.14486000
H        3.10750000       1.66299000      -0.60446000
H        5.81433000       1.44524000       2.01702000
H        7.17450000       1.51117000       0.88759000
H        6.17914000       0.05446000       0.98466000
H        5.06948000       1.63119000      -2.24683000
H        5.74111000       0.16372000      -1.52016000
H        6.73246000       1.62112000      -1.64298000
H        4.61236000       3.69851000      -0.77527000
H        6.27337000       3.63460000      -0.16866000
H        4.91642000       3.62263000       0.96694000
19
Properties=species:S:1:pos:R:3 energy=-1837.9 pbc="F F F"
C        1.97575000       0.98281000      -0.64688000
O        3.19563000       1.66370000      -0.38729000
C        4.30662000       1.01151000      -1.01106000
C        5.59908000       1.80532000      -0.73522000
C        6.81522000       0.96174000      -1.12935000
C        5.53608000       3.16920000      -1.40068000
C        6.36698000       3.67783000      -2.31936000
H        1.16463000       1.53178000      -0.16094000
H        2.00824000      -0.03047000      -0.23508000
H        1.77707000       0.94681000      -1.72258000
H        4.12823000       0.92884000      -2.09045000
H        4.39262000       0.00146000      -0.59269000
H        5.65923000       1.99564000       0.34505000
H        6.80451000       0.71259000      -2.19604000
H        6.82876000       0.02083000      -0.56840000
H        7.75025000       1.48683000      -0.90683000
H        4.70643000       3.79507000      -1.06759000
H        7.21993000       3.13162000      -2.70715000
H        6.20477000       4.67847000      -2.71044000
21
Properties=species:S:1:pos:R:3 energy=-1983.22 pbc="F F F"
C        1.76962000      -0.92644000      -0.40434000
O        3.05716000      -0.33999000      -0.26497000
C        2.98190000       1.08498000      -0.18546000
C        4.40065000       1.62891000      -0.04279000
C        4.46474000       3.15300000       0.13979000
C        5.90821000       3.58240000       0.41416000
C        3.92436000       3.90914000      -1.07493000
H        1.89106000      -2.01008000      -0.47112000
H        1.28366000      -0.57171000      -1.31786000
H        1.14895000      -0.69631000       0.46706000
H        2.37672000       1.36957000       0.68317000
H        2.50781000       1.46630000      -1.09603000
H        4.99178000       1.32363000      -0.91611000
H        4.87537000       1.13581000       0.81591000
H        3.86072000       3.42991000       1.01303000
H        6.56479000       3.33062000      -0.42624000
H        6.29856000       3.08722000       1.30975000
H        5.96921000       4.66393000       0.57923000
H        4.45003000       3.61684000      -1.99048000
H        4.04640000       4.99001000      -0.94608000
H        2.85649000       3.71979000      -1.21901000
19
Properties=species:S:1:pos:R:3 energy=-1905.45 pbc="F F F"
C        2.49781000      -0.56020000       1.37157000
C        2.74893000       0.03697000      -0.00714000
C        3.19699000       1.48052000       0.03912000
C        2.30517000       2.48723000       0.04078000
C        4.63101000       1.75249000       0.01658000
C        5.44952000       1.23240000       1.16446000
C        5.19154000       2.45191000      -0.98423000
H        2.10261000      -1.57643000       1.27233000
H        1.76846000       0.03078000       1.93524000
H        3.41671000      -0.61893000       1.96164000
H        1.82065000      -0.03621000      -0.58934000
H        3.48342000      -0.57349000      -0.54712000
H        1.23725000       2.29497000       0.03392000
H        2.61800000       3.52670000       0.05746000
H        4.99589000       1.51094000       2.12200000
H        6.46585000       1.64186000       1.15716000
H        5.53473000       0.14203000       1.11865000
H        4.60348000       2.82630000      -1.81672000
H        6.25642000       2.66006000      -1.00289000
19
Properties=species:S:1:pos:R:3 energy=-1786.83 pbc="F F F"
C        2.38063000      -0.26527000      -0.66659000
O        3.50001000       0.56117000      -0.38220000
C        3.22106000       1.93284000      -0.03007000
C        2.53082000       2.66925000      -1.18607000
C        2.38832000       2.02999000       1.25272000
C        4.60814000       2.56539000       0.23370000
O        5.44684000       2.43272000      -0.91613000
H        2.75574000      -1.26295000      -0.91290000
H        1.82236000       0.10307000      -1.53068000
H        1.72531000      -0.36129000       0.20246000
H        3.04717000       2.48985000      -2.13588000
H        2.49477000       3.74935000      -1.00585000
H        1.49893000       2.32622000      -1.32001000
H        2.82540000       1.41717000       2.04949000
H        1.36608000       1.66732000       1.09885000
H        2.31900000       3.06477000       1.60674000
H        5.11721000       2.05469000       1.05887000
H        4.53042000       3.62930000       0.47990000
H        5.33520000       1.50220000      -1.19556000
17
Properties=species:S:1:pos:R:3 energy=-1639.64 pbc="F F F"
C        1.36561000      -0.21301000       0.18196000
O        2.78535000      -0.16254000       0.18920000
C        3.26222000       1.17243000       0.01643000
C        4.77342000       1.20723000      -0.04068000
C        5.55901000       0.11722000       0.03562000
C        5.36244000       2.58322000      -0.17111000
O        4.96974000       3.14178000      -1.41501000
H        1.05712000      -1.25067000       0.33531000
H        0.97542000       0.12741000      -0.78219000
H        0.95454000       0.39723000       0.99204000
H        2.91674000       1.78368000       0.85849000
H        2.85248000       1.58040000      -0.91484000
H        5.13413000      -0.87779000       0.13977000
H        6.64151000       0.18437000       0.00037000
H        6.45662000       2.57445000      -0.13084000
H        5.00610000       3.23404000       0.63350000
H        5.25356000       2.51216000      -2.10078000
19
Properties=species:S:1:pos:R:3 energy=-1786.04 pbc="F F F"
C        2.05742000       0.85690000      -0.37424000
O        3.20512000       1.69826000      -0.40348000
C        4.18716000       1.21602000      -1.32779000
C        5.45621000       2.07438000      -1.22261000
C        6.53122000       1.53039000      -2.16115000
C        5.18056000       3.55421000      -1.53396000
O        4.31013000       4.14345000      -0.57637000
H        1.33963000       1.28114000       0.33232000
H        2.32828000      -0.14754000      -0.03618000
H        1.59122000       0.81021000      -1.36328000
H        3.77239000       1.26271000      -2.34303000
H        4.42497000       0.17395000      -1.09257000
H        5.81413000       2.01625000      -0.18882000
H        6.18568000       1.52355000      -3.20058000
H        6.80059000       0.50441000      -1.88768000
H        7.44130000       2.13833000      -2.11116000
H        4.73031000       3.67278000      -2.52556000
H        6.11382000       4.12707000      -1.51671000
H        3.62712000       3.47360000      -0.36355000
19
Properties=species:S:1:pos:R:3 energy=-1790.19 pbc="F F F"
C        1.19035000       1.42444000      -1.43179000
O        2.58155000       1.67339000      -1.27432000
C        3.08739000       1.08151000      -0.06860000
C        4.59354000       1.38718000       0.04429000
C        5.15054000       0.85858000       1.36368000
C        5.37750000       0.81226000      -1.13733000
O        4.76937000       2.80942000       0.03232000
H        0.86231000       1.88573000      -2.36708000
H        0.62661000       1.86847000      -0.60594000
H        0.99737000       0.34872000      -1.48586000
H        2.91055000      -0.00041000      -0.08524000
H        2.55146000       1.52417000       0.77973000
H        4.63107000       1.31206000       2.21565000
H        6.20944000       1.11963000       1.47395000
H        5.05179000      -0.22952000       1.43625000
H        5.04656000       1.24890000      -2.08646000
H        5.27055000      -0.27554000      -1.19908000
H        6.44362000       1.05089000      -1.04829000
H        4.21735000       3.13063000      -0.70870000
17
Properties=species:S:1:pos:R:3 energy=-1637.43 pbc="F F F"
C        2.32113000      -1.06653000       0.73907000
O        3.55777000      -0.79388000       0.08592000
C        3.94872000       0.51183000       0.24508000
C        5.23691000       0.89708000       0.24529000
C        6.36706000      -0.08276000       0.09869000
O        5.68952000       2.19423000       0.38247000
C        4.72480000       3.22820000       0.53150000
H        2.10172000      -2.13149000       0.61964000
H        1.50534000      -0.49513000       0.28344000
H        2.39000000      -0.84691000       1.81007000
H        3.11792000       1.19718000       0.33663000
H        6.03183000      -1.12397000       0.06795000
H        7.05930000       0.01515000       0.94182000
H        6.91985000       0.11918000      -0.82468000
H        5.26067000       4.17635000       0.63557000
H        4.12647000       3.07932000       1.43636000
H        4.08548000       3.29772000      -0.35457000
19
Properties=species:S:1:pos:R:3 energy=-1783.7 pbc="F F F"
C        2.06494000      -0.83629000       0.67430000
O        1.95440000       0.17933000      -0.31177000
C        2.70150000       1.36982000      -0.04007000
C        2.40073000       2.35012000      -1.18272000
C        2.25453000       2.02351000       1.27358000
O        4.10720000       1.12196000       0.07886000
C        4.72162000       0.58219000      -1.08215000
H        1.58632000      -1.73920000       0.28335000
H        1.53740000      -0.55096000       1.58952000
H        3.10995000      -1.07330000       0.89523000
H        2.58318000       1.88927000      -2.15980000
H        3.02561000       3.24707000      -1.11574000
H        1.34582000       2.64654000      -1.17876000
H        2.55379000       1.42162000       2.13943000
H        1.16696000       2.14336000       1.31192000
H        2.72840000       3.00295000       1.40698000
H        5.73610000       0.27374000      -0.81332000
H        4.80132000       1.33959000      -1.86647000
H        4.18496000      -0.29575000      -1.45289000
17
Properties=species:S:1:pos:R:3 energy=-1646.05 pbc="F F F"
C        2.64243000       0.46739000       1.54367000
O        2.39514000       1.67814000       0.84109000
C        3.44013000       2.27638000       0.15578000
C        3.02901000       3.63175000      -0.37830000
O        2.47947000       4.40799000       0.68522000
C        4.66775000       1.73689000       0.00503000
C        5.84838000       2.32405000      -0.70356000
H        1.71347000       0.17284000       2.04465000
H        3.40779000       0.61257000       2.31525000
H        2.92186000      -0.33975000       0.85695000
H        2.25392000       3.50845000      -1.14230000
H        3.84475000       4.20941000      -0.81528000
H        1.99482000       3.77177000       1.24108000
H        4.88380000       0.76086000       0.42658000
H        5.63975000       3.26320000      -1.21909000
H        6.21516000       1.61371000      -1.45360000
H        6.65623000       2.50325000       0.01514000
17
Properties=species:S:1:pos:R:3 energy=-1635.75 pbc="F F F"
C        2.60539000      -1.52186000       0.55055000
O        3.35526000      -0.31419000       0.56926000
C        2.84459000       0.62867000      -0.37183000
C        3.62000000       1.93853000      -0.26304000
O        3.10025000       2.85221000      -1.23100000
C        3.63800000       4.10572000      -1.26483000
C        4.60046000       4.63263000      -0.49986000
H        3.07061000      -2.22884000       1.24307000
H        2.60579000      -1.96246000      -0.45196000
H        1.57806000      -1.33599000       0.87930000
H        1.78083000       0.81455000      -0.18116000
H        2.93566000       0.22690000      -1.38804000
H        4.68537000       1.75140000      -0.44481000
H        3.50494000       2.34143000       0.75140000
H        3.15493000       4.67936000      -2.04853000
H        5.09803000       4.08304000       0.28994000
H        4.91421000       5.66041000      -0.65759000
17
Properties=species:S:1:pos:R:3 energy=-1680.8 pbc="F F F"
C        2.57859000       0.06671000      -2.38529000
O        3.48868000       0.12878000      -1.28673000
C        4.29359000       1.22902000      -1.29588000
O        4.28039000       2.10056000      -2.15515000
C        5.22491000       1.19937000      -0.09915000
C        6.46243000       0.37782000      -0.43693000
C        5.60064000       2.61714000       0.32257000
H        1.89691000       0.92286000      -2.36669000
H        1.98769000      -0.84796000      -2.28494000
H        3.12354000       0.02447000      -3.33357000
H        4.69090000       0.73461000       0.73884000
H        7.01089000       0.81285000      -1.28004000
H        6.18841000      -0.64507000      -0.71737000
H        7.14127000       0.32281000       0.42036000
H        6.14838000       3.14046000      -0.46923000
H        6.23080000       2.60268000       1.21811000
H        4.70409000       3.20524000       0.54795000
13
Properties=species:S:1:pos:R:3 energy=-1381.23 pbc="F F F"
C        1.09217000      -0.06676000       0.42680000
O        2.51754000      -0.02905000       0.40461000
C        3.02474000       1.16634000       0.00544000
O        2.38591000       2.15454000      -0.31906000
C        4.46750000       1.16827000       0.00000000
C        5.65766000       1.16827000       0.00000000
C        7.10166000       1.16827000       0.00000000
H        0.78407000      -1.06497000       0.75077000
H        0.68613000       0.11208000      -0.57385000
H        0.69965000       0.66443000       1.14087000
H        7.49573000       2.18912000      -0.01155000
H        7.49572000       0.64782000      -0.87830000
H        7.49571000       0.66784000       0.88987000
17
Properties=species:S:1:pos:R:3 energy=-1752.37 pbc="F F F"
C        2.45050000      -0.61232000       1.40780000
C        2.56147000      -0.04615000      -0.00093000
C        3.01470000       1.39699000       0.00000000
C        2.17728000       2.45249000      -0.03389000
C        0.68201000       2.43118000      -0.02364000
C        4.39716000       1.65322000       0.00000000
C        5.56739000       1.87011000       0.00000000
H        2.12667000      -1.65738000       1.36914000
H        1.71980000      -0.05467000       2.00321000
H        3.41330000      -0.57762000       1.92859000
H        1.60125000      -0.15790000      -0.51636000
H        3.27000000      -0.65372000      -0.57881000
H        2.60499000       3.45570000      -0.05591000
H        0.26182000       1.43731000       0.14344000
H        0.29909000       2.81306000      -0.97450000
H        0.31392000       3.08012000       0.77719000
H        6.61426000       2.06529000       0.00010000
15
Properties=species:S:1:pos:R:3 energy=-1477.23 pbc="F F F"
C        2.68350000      -0.76744000       1.24925000
O        2.37150000      -0.08727000       0.04032000
C        2.84126000       1.25556000       0.05520000
O        4.25828000       1.34652000       0.01833000
C        4.77961000       0.85790000      -1.21387000
C        6.22326000       1.12112000      -1.26139000
C        7.40441000       1.33469000      -1.30829000
H        2.26243000      -1.77497000       1.19252000
H        2.23934000      -0.25414000       2.10758000
H        3.76655000      -0.85263000       1.37831000
H        2.48204000       1.76705000       0.95537000
H        2.41148000       1.78229000      -0.80436000
H        4.28888000       1.36028000      -2.05512000
H        4.59754000      -0.21935000      -1.29120000
H        8.45193000       1.52496000      -1.34759000
13
Properties=species:S:1:pos:R:3 energy=-1423.73 pbc="F F F"
O       -0.01958000       0.02487000      -1.23316000
C        0.02464000      -1.07953000      -0.28029000
C        1.26151000      -0.65335000       0.47042000
C        1.22705000       0.69395000       0.49929000
C       -0.03085000       1.08799000      -0.23413000
C       -1.24162000       0.62991000       0.53973000
C       -1.20720000      -0.71731000       0.51091000
H        0.04098000      -2.03450000      -0.80390000
H        1.98670000      -1.30371000       0.92876000
H        1.91855000       1.36037000       0.98579000
H       -0.06391000       2.06407000      -0.71616000
H       -1.95036000       1.26013000       1.04957000
H       -1.88224000      -1.40406000       0.99268000
19
Properties=species:S:1:pos:R:3 energy=-1901.45 pbc="F F F"
C        1.79671000      -0.87370000       0.94255000
C        3.20610000      -0.38095000       0.63563000
C        3.35171000       1.15037000       0.73982000
C        3.11275000       1.64087000       2.14879000
C        2.17096000       2.53297000       2.48845000
C        4.73456000       1.56157000       0.28796000
C        4.97965000       2.40983000      -0.72087000
H        1.73476000      -1.95494000       0.78285000
H        1.06210000      -0.39271000       0.28911000
H        1.51848000      -0.67552000       1.98196000
H        3.46636000      -0.70262000      -0.38143000
H        3.91164000      -0.88190000       1.31159000
H        2.60871000       1.60280000       0.06840000
H        3.75427000       1.23687000       2.92936000
H        1.50691000       2.97017000       1.74974000
H        2.05137000       2.84728000       3.52032000
H        5.57884000       1.13492000       0.82647000
H        4.17598000       2.86949000      -1.28735000
H        5.99754000       2.66715000      -0.99446000
13
Properties=species:S:1:pos:R:3 energy=-1437.73 pbc="F F F"
O        0.91277000      -1.30794000      -0.00439000
C       -0.43985000      -1.49070000      -0.00037000
C       -1.45114000      -0.61540000       0.00149000
C       -1.39294000       0.81988000      -0.00130000
C       -0.29913000       1.58670000      -0.00105000
C        1.06975000       1.15133000       0.00199000
C        1.54742000      -0.10012000       0.00004000
H       -0.63239000      -2.55846000       0.00104000
H       -2.46069000      -1.02397000       0.00458000
H       -2.36222000       1.31633000      -0.00364000
H       -0.43462000       2.66737000      -0.00322000
H        1.79912000       1.95974000       0.00544000
H        2.61631000      -0.28365000       0.00169000
15
Properties=species:S:1:pos:R:3 energy=-1557.23 pbc="F F F"
O        0.98760000       0.18857000      -0.70644000
C        2.14172000       0.07211000       0.11926000
C        2.47781000      -1.33005000       0.77948000
C        3.85714000      -0.56052000       0.94252000
C        3.55688000      -0.14348000      -0.56115000
C        3.52463000       0.65461000       1.75131000
C        2.37784000       1.07807000       1.19656000
H        0.23831000       0.10191000      -0.09389000
H        2.46902000      -2.20606000       0.12094000
H        1.95008000      -1.57862000       1.70633000
H        4.76285000      -1.11365000       1.18236000
H        4.07127000       0.75169000      -0.92634000
H        3.62992000      -0.92920000      -1.32160000
H        4.08495000       1.08428000       2.56568000
H        1.77949000       1.93803000       1.44643000
15
Properties=species:S:1:pos:R:3 energy=-1504.8 pbc="F F F"
O        1.02004000      -0.08203000      -0.09612000
C        2.43797000       0.05864000      -0.02697000
C        3.34539000      -0.62599000      -1.09769000
C        4.39150000      -0.25955000       0.01935000
C        3.26822000      -0.80015000       0.97986000
O        4.40190000       1.19017000       0.14558000
C        2.99341000       1.48884000       0.10254000
H        0.68835000       0.20770000       0.77139000
H        3.46314000      -0.09633000      -2.04722000
H        3.17186000      -1.68960000      -1.29221000
H        5.37415000      -0.72964000       0.01713000
H        3.08709000      -1.88003000       0.98229000
H        3.31135000      -0.43467000       2.00967000
H        2.77041000       2.11241000      -0.76785000
H        2.68958000       1.97905000       1.03141000
13
Properties=species:S:1:pos:R:3 energy=-1429.63 pbc="F F F"
O        0.92325000       0.04403000      -0.17315000
C        2.09803000       0.24200000      -0.02095000
C        3.43511000      -0.47559000       0.65088000
C        3.52628000       0.99636000       1.31452000
C        3.22345000       1.44792000      -0.20755000
C        4.28596000       0.77810000      -1.01629000
C        4.42038000      -0.44317000      -0.47089000
H        3.33548000      -1.35388000       1.27873000
H        2.75795000       1.24396000       2.05711000
H        4.50590000       1.28172000       1.71168000
H        2.91490000       2.46361000      -0.42837000
H        4.82335000       1.19537000      -1.85417000
H        5.09064000      -1.23528000      -0.76783000
21
Properties=species:S:1:pos:R:3 energy=-2045.45 pbc="F F F"
C        2.13557000      -0.97690000      -0.71262000
C        1.97246000       0.39359000      -0.07642000
C        3.23354000       1.19983000      -0.17090000
C        3.35560000       2.32970000      -1.16272000
C        3.22424000       2.63225000       0.30867000
C        4.39080000       3.17708000       1.07684000
C        4.44741000       2.60537000       2.48485000
H        1.19782000      -1.53812000      -0.65577000
H        2.91001000      -1.55594000      -0.19747000
H        2.42539000      -0.89154000      -1.76500000
H        1.70757000       0.26812000       0.97946000
H        1.13872000       0.91816000      -0.55737000
H        4.11914000       0.61085000       0.04526000
H        2.51026000       2.55722000      -1.80247000
H        4.31675000       2.47701000      -1.64294000
H        2.28398000       3.04962000       0.65406000
H        4.29967000       4.26825000       1.13114000
H        5.33470000       2.95981000       0.56322000
H        3.51451000       2.79397000       3.02501000
H        5.26996000       3.05720000       3.04725000
H        4.60707000       1.52254000       2.46119000
17
Properties=species:S:1:pos:R:3 energy=-1716.48 pbc="F F F"
O        0.72465000       0.00853000      -0.12604000
C        2.11974000       0.02944000       0.19791000
C        3.01689000      -0.84639000      -0.63080000
C        2.58340000      -1.46978000      -1.92759000
C        2.86121000      -0.38376000      -2.97145000
C        2.63117000       0.93827000      -2.23246000
C        3.04375000       0.64359000      -0.81716000
H        0.30082000       0.85098000       0.11088000
H        2.38360000       0.14495000       1.24509000
H        3.86754000      -1.32761000      -0.16975000
H        3.14919000      -2.38013000      -2.14887000
H        1.51916000      -1.72785000      -1.90582000
H        3.91130000      -0.44425000      -3.28435000
H        2.23731000      -0.48441000      -3.86371000
H        3.23160000       1.74171000      -2.67068000
H        1.57803000       1.23527000      -2.28210000
H        3.91805000       1.18730000      -0.48778000
21
Properties=species:S:1:pos:R:3 energy=-2050.56 pbc="F F F"
C        2.18881000      -0.53398000       1.30279000
C        2.48458000       0.06694000      -0.06400000
C        3.07166000       1.46404000       0.03271000
C        2.01485000       2.54327000       0.09998000
C        4.40432000       1.71784000       0.03579000
C        5.46616000       0.64244000       0.04714000
C        5.00106000       3.10500000       0.02539000
H        1.76941000      -1.53899000       1.18891000
H        1.46400000       0.07006000       1.85865000
H        3.09819000      -0.61521000       1.90783000
H        1.55899000       0.10256000      -0.65224000
H        3.14559000      -0.60222000      -0.62470000
H        1.20047000       2.24137000       0.76734000
H        1.59325000       2.71849000      -0.89502000
H        2.38776000       3.49161000       0.49427000
H        5.08045000      -0.35569000       0.26690000
H        6.21183000       0.86144000       0.81964000
H        5.97484000       0.60601000      -0.92166000
H        4.29582000       3.88150000      -0.27809000
H        5.82956000       3.15259000      -0.69015000
H        5.38984000       3.35505000       1.01734000
17
Properties=species:S:1:pos:R:3 energy=-1697.45 pbc="F F F"
O        1.02295000       0.02324000      -0.07019000
C        2.45247000      -0.06186000       0.00498000
C        3.11584000      -0.72705000      -1.15777000
C        3.21269000       0.77227000      -1.00071000
C        4.50756000       1.49265000      -0.62834000
C        5.87600000       0.99371000      -1.02806000
C        5.32389000       2.23302000      -1.66238000
H        0.69435000       0.79438000       0.42324000
H        2.89831000      -0.21618000       0.98274000
H        2.48611000      -1.11291000      -1.95013000
H        3.99001000      -1.33195000      -0.95367000
H        2.58578000       1.34603000      -1.68458000
H        4.45893000       1.98610000       0.34417000
H        5.94873000       0.10578000      -1.64456000
H        6.68271000       1.10259000      -0.31265000
H        5.75511000       3.18636000      -1.38004000
H        5.01393000       2.17516000      -2.69943000
17
Properties=species:S:1:pos:R:3 energy=-1713.9 pbc="F F F"
O        1.00231000       0.06053000       0.06253000
C        2.41587000      -0.00758000      -0.00407000
C        2.97720000      -1.12913000       0.87878000
C        3.77876000      -0.28109000       1.86720000
C        4.50337000       0.78181000       0.98032000
C        3.02202000       1.19693000       0.71263000
C        2.84322000       0.91072000       2.24014000
H        0.65557000      -0.77882000      -0.28508000
H        2.73428000      -0.08558000      -1.04755000
H        3.63324000      -1.79754000       0.31262000
H        2.19988000      -1.71913000       1.37530000
H        4.34151000      -0.77328000       2.65872000
H        5.07280000       0.40482000       0.12535000
H        5.11953000       1.51477000       1.51512000
H        2.82218000       2.20076000       0.34084000
H        3.26563000       1.65884000       2.92152000
H        1.83686000       0.65566000       2.58467000
15
Properties=species:S:1:pos:R:3 energy=-1549.64 pbc="F F F"
O        0.93791000      -0.00135000       0.00826000
C        2.37859000       0.00672000       0.01280000
C        3.04269000       1.05713000       0.93435000
C        4.12525000       0.00441000       1.24295000
C        3.07721000      -1.07952000       0.88886000
C        3.58004000      -2.23629000       0.17710000
C        4.00078000      -3.19787000      -0.40450000
H        0.69814000      -0.78566000      -0.51575000
H        2.75937000       0.06085000      -1.01630000
H        2.43522000       1.34021000       1.80164000
H        3.40031000       1.96366000       0.43918000
H        4.98659000       0.05511000       0.56515000
H        4.48916000      -0.00526000       2.27413000
H        2.46736000      -1.36422000       1.75797000
H        4.38002000      -4.05380000      -0.91498000
21
Properties=species:S:1:pos:R:3 energy=-2046.05 pbc="F F F"
C        3.00876000      -0.81657000      -1.23538000
C        2.50761000       0.04165000      -0.07764000
C        3.02486000       1.50662000      -0.06153000
C        2.50579000       2.26587000      -1.29958000
C        2.44673000       2.20375000       1.18889000
C        4.54294000       1.51657000       0.07534000
C        5.43754000       2.08133000      -0.74811000
H        2.59535000      -1.82784000      -1.15257000
H        4.09959000      -0.90604000      -1.23033000
H        2.69677000      -0.41378000      -2.20355000
H        2.78716000      -0.45849000       0.85902000
H        1.41036000       0.04308000      -0.10459000
H        2.91344000       1.86354000      -2.23322000
H        2.77084000       3.32932000      -1.25614000
H        1.41298000       2.20668000      -1.36578000
H        2.75155000       1.69491000       2.11154000
H        1.35052000       2.21298000       1.16568000
H        2.78544000       3.24472000       1.25872000
H        4.93494000       0.99726000       0.95107000
H        5.15265000       2.61918000      -1.64474000
H        6.49989000       2.01416000      -0.53393000
19
Properties=species:S:1:pos:R:3 energy=-1890.32 pbc="F F F"
C        0.99916000      -0.20130000       0.01897000
C        2.51511000      -0.03080000       0.01458000
C        3.02739000       1.43282000       0.00000000
C        2.53850000       2.17456000      -1.25840000
C        2.53821000       2.19844000       1.24390000
C        4.47139000       1.43282000       0.00000000
C        5.66155000       1.43282000       0.00000000
H        0.74593000      -1.26662000       0.02962000
H        0.53914000       0.23494000      -0.87122000
H        0.54367000       0.25068000       0.90530000
H        2.91388000      -0.56659000      -0.85858000
H        2.91794000      -0.55092000       0.89380000
H        2.83456000       1.64548000      -2.17223000
H        2.96539000       3.18370000      -1.31596000
H        1.44924000       2.28536000      -1.27054000
H        2.82934000       1.68416000       2.16756000
H        1.44954000       2.31436000       1.25076000
H        2.96952000       3.20680000       1.28522000
H        6.72720000       1.43282000      -0.00000000
15
Properties=species:S:1:pos:R:3 energy=-1528.39 pbc="F F F"
O        0.99859000      -0.02430000       0.03634000
C        2.43067000      -0.01668000       0.00442000
C        2.91687000      -1.23980000      -0.79021000
C        3.26232000      -0.67291000      -2.13323000
C        3.29328000       0.66373000      -2.11585000
C        2.96419000       1.21298000      -0.76631000
O        4.14912000       1.72480000      -0.17390000
H        0.71966000       0.78018000       0.50762000
H        2.78684000      -0.05558000       1.03947000
H        2.14684000      -2.01247000      -0.87420000
H        3.81854000      -1.67051000      -0.34169000
H        3.47540000      -1.28391000      -2.99972000
H        3.53139000       1.28822000      -2.96546000
H        2.22000000       2.01246000      -0.82879000
H        4.87578000       1.12152000      -0.40745000
19
Properties=species:S:1:pos:R:3 energy=-1873.28 pbc="F F F"
O        1.01769000       0.01658000       0.08606000
C        2.44376000       0.02000000       0.03153000
C        2.91628000      -1.33199000      -0.50214000
C        2.54734000      -1.53236000      -1.97307000
C        3.04340000      -0.37921000      -2.83974000
C        2.55404000       0.96918000      -2.31816000
C        2.92556000       1.17346000      -0.84933000
H        0.73634000       0.87889000       0.43697000
H        2.80836000       0.15516000       1.05571000
H        2.46840000      -2.14300000       0.08447000
H        4.00461000      -1.40674000      -0.39104000
H        2.97598000      -2.47451000      -2.33327000
H        1.45834000      -1.62161000      -2.07141000
H        4.13981000      -0.38465000      -2.86080000
H        2.70344000      -0.52056000      -3.87161000
H        2.98625000       1.77595000      -2.92170000
H        1.46490000       1.03358000      -2.43641000
H        4.01450000       1.26566000      -0.76303000
H        2.48740000       2.11749000      -0.50542000
17
Properties=species:S:1:pos:R:3 energy=-1746.04 pbc="F F F"
O        1.08751000       0.04802000       0.34743000
C        2.28836000       0.01776000       0.08147000
C        3.04831000      -1.28754000       0.00770000
C        3.99766000      -1.29604000      -1.18225000
C        4.89197000      -0.05878000      -1.20182000
C        4.05453000       1.21775000      -1.21705000
C        3.10589000       1.28541000      -0.02836000
H        2.33506000      -2.11376000      -0.08056000
H        3.59914000      -1.41020000       0.94629000
H        4.61675000      -2.19967000      -1.15269000
H        3.41706000      -1.33439000      -2.11252000
H        5.54912000      -0.06143000      -0.32372000
H        5.53664000      -0.08560000      -2.08746000
H        4.71378000       2.09293000      -1.21178000
H        3.47625000       1.25664000      -2.14875000
H        3.66087000       1.41083000       0.90727000
H        2.42941000       2.13918000      -0.14196000
17
Properties=species:S:1:pos:R:3 energy=-1725.96 pbc="F F F"
O        1.01966000       0.04474000      -0.02460000
C        2.43636000      -0.00569000       0.00311000
C        2.98448000       1.12482000       0.86552000
C        4.38923000       0.66206000       1.21890000
C        4.21441000      -0.82353000       1.37183000
C        5.02030000      -1.61998000       2.08455000
C        2.95871000      -1.27773000       0.67523000
H        0.70927000      -0.73550000      -0.51496000
H        2.81431000       0.07775000      -1.02358000
H        2.37378000       1.25780000       1.76824000
H        2.98314000       2.08258000       0.33485000
H        5.07750000       0.87115000       0.39275000
H        4.75756000       1.14707000       2.12694000
H        4.82029000      -2.68227000       2.18306000
H        5.89587000      -1.22697000       2.59167000
H        3.16458000      -2.04927000      -0.07307000
H        2.23302000      -1.67275000       1.39460000
13
Properties=species:S:1:pos:R:3 energy=-1416.95 pbc="F F F"
O        1.17467000      -0.04434000       0.51973000
C        2.33940000      -0.02041000       0.14575000
C        3.14733000       1.24344000       0.00328000
C        4.36629000       0.82977000      -0.81419000
C        4.44179000      -0.66626000      -0.65228000
O        5.42154000      -1.33474000      -0.95460000
C        3.15204000      -1.24658000      -0.14962000
H        3.44386000       1.58069000       1.00157000
H        2.57153000       2.02404000      -0.50014000
H        4.21981000       1.05763000      -1.87436000
H        5.27680000       1.31096000      -0.44967000
H        2.67394000      -1.83588000      -0.93403000
H        3.32615000      -1.81194000       0.76763000
17
Properties=species:S:1:pos:R:3 energy=-1668.94 pbc="F F F"
O        1.01995000       0.03016000      -0.00966000
C        2.43329000       0.00598000       0.01203000
C        2.97978000       1.12418000       0.88387000
C        4.39180000       0.65247000       1.17942000
C        4.23348000      -0.84978000       1.40918000
O        5.37493000      -1.55971000       0.95915000
C        2.97263000      -1.27313000       0.65085000
H        0.71767000      -0.74255000      -0.51756000
H        2.80590000       0.10752000      -1.01377000
H        2.39489000       1.22591000       1.80597000
H        2.95890000       2.09204000       0.37480000
H        5.05536000       0.85639000       0.32977000
H        4.81932000       1.15511000       2.05331000
H        4.11018000      -1.06014000       2.47646000
H        5.51319000      -1.36037000       0.01782000
H        3.16701000      -2.03977000      -0.10737000
H        2.23713000      -1.69317000       1.34835000
19
Properties=species:S:1:pos:R:3 energy=-1897.52 pbc="F F F"
C        0.99044000      -0.12022000      -0.07710000
C        2.50146000      -0.01247000       0.07442000
C        3.02739000       1.43282000       0.00000000
C        2.50619000       2.29770000       1.14834000
C        4.47139000       1.43282000       0.00000000
C        5.66155000       1.43282000       0.00000000
C        7.10555000       1.43282000       0.00000000
H        0.69254000      -1.17286000      -0.11953000
H        0.65185000       0.36438000      -0.99824000
H        0.46792000       0.33573000       0.76865000
H        2.96651000      -0.60902000      -0.72187000
H        2.80104000      -0.47837000       1.02211000
H        2.67851000       1.87868000      -0.94041000
H        2.76502000       1.86802000       2.12385000
H        1.41772000       2.40896000       1.10429000
H        2.93699000       3.30592000       1.10843000
H        7.49958000       2.45368000      -0.01152000
H        7.49958000       0.91236000      -0.87830000
H        7.49951000       0.93237000       0.88989000
17
Properties=species:S:1:pos:R:3 energy=-1666.59 pbc="F F F"
O        1.02494000       0.02845000       0.13376000
C        2.44972000       0.02617000       0.02953000
C        2.89980000      -1.32010000      -0.52801000
C        2.54876000      -1.44115000      -2.00437000
O        3.10486000      -0.34973000      -2.74205000
C        2.55420000       0.89944000      -2.32302000
C        2.90281000       1.17560000      -0.86630000
H        0.76662000       0.84594000       0.59460000
H        2.84786000       0.15585000       1.04226000
H        2.43639000      -2.14374000       0.02483000
H        3.98702000      -1.39880000      -0.41481000
H        2.97161000      -2.36509000      -2.41179000
H        1.46417000      -1.47800000      -2.16418000
H        2.98107000       1.68013000      -2.96022000
H        1.46997000       0.89749000      -2.48776000
H        3.99026000       1.27921000      -0.77586000
H        2.44170000       2.11845000      -0.55380000
21
Properties=species:S:1:pos:R:3 energy=-2045.86 pbc="F F F"
C        2.79480000      -1.33118000       0.02898000
C        2.29286000      -0.16704000       0.87145000
C        2.90169000       1.19160000       0.47163000
C        2.22526000       2.31539000       1.26545000
C        4.43920000       1.26674000       0.59825000
C        4.97734000       1.02985000       1.98280000
C        5.64878000       1.94525000       2.69399000
H        2.25744000      -2.24654000       0.29738000
H        3.86061000      -1.51580000       0.18926000
H        2.63015000      -1.14344000      -1.03663000
H        2.48031000      -0.37916000       1.93046000
H        1.20245000      -0.11373000       0.75797000
H        2.66263000       1.36139000      -0.58742000
H        2.36488000       2.19156000       2.34432000
H        1.14762000       2.33098000       1.06867000
H        2.62765000       3.29258000       0.97779000
H        4.77032000       2.24811000       0.23268000
H        4.90063000       0.53486000      -0.07532000
H        4.82236000       0.04346000       2.41425000
H        5.84057000       2.94124000       2.30715000
H        6.02209000       1.71249000       3.68636000
13
Properties=species:S:1:pos:R:3 energy=-1344.79 pbc="F F F"
O        1.05122000      -0.06379000      -0.22898000
C        2.48081000      -0.00057000      -0.03798000
C        3.29336000      -0.70050000      -1.09578000
O        2.52322000      -1.32946000      -2.13968000
C        3.24860000       0.80631000      -1.05427000
C        4.41282000       1.52301000      -0.62061000
C        5.38868000       2.12533000      -0.26275000
H        0.60382000       0.60813000       0.31628000
H        2.85585000      -0.05175000       0.97937000
H        4.20659000      -1.19622000      -0.78465000
H        1.57233000      -1.24581000      -1.92832000
H        2.67374000       1.29140000      -1.83717000
H        6.25650000       2.65855000       0.04841000
15
Properties=species:S:1:pos:R:3 energy=-1517.14 pbc="F F F"
O        0.98998000       0.02489000       0.00941000
C        2.40258000      -0.00007000      -0.00500000
C        2.99864000       1.07661000       0.88595000
O        4.31112000       0.60555000       1.22288000
C        4.19644000      -0.81881000       1.38533000
C        2.97171000      -1.23057000       0.62418000
C        2.47322000      -2.47538000       0.59882000
H        0.69082000      -0.69723000      -0.56667000
H        2.77181000       0.10518000      -1.03152000
H        2.41961000       1.23073000       1.80501000
H        3.07526000       2.03978000       0.37215000
H        5.10479000      -1.28291000       0.99148000
H        4.09818000      -1.03606000       2.45374000
H        1.56499000      -2.72040000       0.05944000
H        2.96688000      -3.28676000       1.12591000
13
Properties=species:S:1:pos:R:3 energy=-1385.39 pbc="F F F"
O        1.04906000      -0.19580000       0.13516000
C        2.25582000      -0.06738000       0.07306000
O        3.17260000      -1.09400000       0.11687000
C        4.44389000      -0.37302000       0.00405000
C        4.31500000       0.72886000      -1.12756000
C        3.23176000       1.19201000      -0.07067000
C        4.40406000       0.89706000       0.95094000
H        5.32549000      -1.01357000       0.01812000
H        3.92696000       0.38123000      -2.08868000
H        5.17381000       1.38804000      -1.29179000
H        2.80886000       2.18999000      -0.13331000
H        5.26916000       1.56814000       0.93365000
H        4.10149000       0.71088000       1.98485000
15
Properties=species:S:1:pos:R:3 energy=-1592.0 pbc="F F F"
O        0.95055000       0.52862000      -0.76555000
C        1.92782000       0.33416000      -0.04729000
C        3.18731000       1.18651000      -0.04424000
C        3.78625000       1.31239000       1.36362000
C        3.40326000       2.70334000       1.87717000
C        3.03189000       3.43463000       0.63286000
C        2.91015000       2.60939000      -0.41151000
H        1.97162000      -0.57158000       0.58213000
H        3.90975000       0.72046000      -0.72186000
H        4.88040000       1.24193000       1.30048000
H        3.45540000       0.53008000       2.05516000
H        4.24335000       3.17805000       2.39271000
H        2.54850000       2.65703000       2.55978000
H        2.84366000       4.49943000       0.59769000
H        2.60707000       2.91532000      -1.40483000
19
Properties=species:S:1:pos:R:3 energy=-1891.5 pbc="F F F"
C        2.82271000      -0.90170000      -1.04041000
C        2.46900000       0.00206000       0.13545000
C        3.02739000       1.43282000       0.00000000
C        2.47570000       2.30586000       1.14627000
C        2.91183000       3.76600000       1.07154000
C        4.47139000       1.43282000       0.00000000
C        5.66155000       1.43282000       0.00000000
H        2.33398000      -1.87423000      -0.92463000
H        3.90116000      -1.07860000      -1.10105000
H        2.48893000      -0.46455000      -1.98581000
H        2.83148000      -0.46319000       1.06162000
H        1.37521000       0.04701000       0.21047000
H        2.66716000       1.85286000      -0.94825000
H        2.78070000       1.89616000       2.11922000
H        1.37892000       2.27694000       1.12237000
H        3.98747000       3.87082000       1.24247000
H        2.39862000       4.34956000       1.84143000
H        2.67136000       4.19955000       0.09756000
H        6.72719000       1.43279000       0.00018000
17
Properties=species:S:1:pos:R:3 energy=-1650.0 pbc="F F F"
O        2.27646000      -0.35595000      -1.36960000
C        2.36849000       0.10376000      -0.01907000
C        3.17109000       1.40363000      -0.01002000
O        4.41888000       1.19616000      -0.71746000
C        2.37887000       2.66733000      -0.45234000
C        3.07817000       3.43174000       0.68709000
C        3.30845000       2.07664000       1.38196000
H        1.79378000      -1.20118000      -1.34436000
H        2.87785000      -0.66698000       0.56879000
H        1.35760000       0.24161000       0.37755000
H        4.13131000       0.74365000      -1.53610000
H        1.29197000       2.59232000      -0.33140000
H        2.59545000       3.03882000      -1.45789000
H        4.00441000       3.92968000       0.37798000
H        2.45569000       4.14530000       1.23240000
H        4.28071000       1.96820000       1.87073000
H        2.52250000       1.80742000       2.09724000
15
Properties=species:S:1:pos:R:3 energy=-1547.4 pbc="F F F"
O        0.99962000      -0.00509000      -0.00582000
C        2.42000000       0.00000000       0.00000000
C        2.90202000       1.36117000       0.00000000
C        3.29930000       2.48307000       0.00000000
C        3.93882000       3.76518000       0.03554000
C        3.76884000       4.69665000      -1.13384000
C        3.11327000       5.01251000       0.17947000
H        0.72520000      -0.93619000      -0.00677000
H        2.76973000      -0.53981000      -0.88534000
H        2.76242000      -0.53731000       0.88970000
H        4.91181000       3.77419000       0.52005000
H        3.13394000       4.39053000      -1.95677000
H        4.62825000       5.28461000      -1.43323000
H        3.52684000       5.82045000       0.77287000
H        2.03561000       4.91866000       0.24653000
17
Properties=species:S:1:pos:R:3 energy=-1708.02 pbc="F F F"
O        1.17044000       0.97668000       1.08587000
C        2.57369000       1.17315000       1.23105000
C        3.22843000       1.18289000      -0.14919000
C        4.72464000       1.40742000      -0.08490000
C        5.56638000       0.36081000      -0.15573000
C        5.26931000       2.75339000       0.02129000
C        4.57378000       3.89630000       0.07853000
H        0.79452000       0.95848000       1.98254000
H        2.97218000       0.35693000       1.84271000
H        2.73386000       2.11763000       1.75964000
H        2.74505000       1.92547000      -0.79664000
H        3.00896000       0.22511000      -0.64190000
H        5.19553000      -0.65605000      -0.24638000
H        6.64497000       0.48034000      -0.12527000
H        6.35620000       2.83307000       0.04981000
H        3.49063000       3.93579000       0.05006000
H        5.09391000       4.84732000       0.14875000
19
Properties=species:S:1:pos:R:3 energy=-1847.41 pbc="F F F"
O        0.99315000      -0.36545000      -0.20064000
C        2.38124000      -0.21800000       0.06596000
C        2.75078000       1.25291000      -0.05713000
C        4.23561000       1.48568000       0.21275000
C        4.59757000       2.96657000       0.08285000
C        6.05992000       3.19490000       0.33733000
C        6.53828000       3.97242000       1.31668000
H        0.78474000      -1.31140000      -0.11361000
H        2.94010000      -0.82382000      -0.65488000
H        2.58319000      -0.58929000       1.07607000
H        2.14145000       1.83967000       0.64108000
H        2.48660000       1.61089000      -1.05968000
H        4.83312000       0.89365000      -0.49307000
H        4.48580000       1.12948000       1.22079000
H        3.98699000       3.55731000       0.77641000
H        4.36253000       3.31854000      -0.92849000
H        6.76050000       2.70062000      -0.33269000
H        5.88062000       4.49341000       2.00569000
H        7.60791000       4.10593000       1.44763000
15
Properties=species:S:1:pos:R:3 energy=-1490.91 pbc="F F F"
O        0.93576000      -0.01604000       0.05635000
C        2.35463000      -0.11784000       0.06141000
C        2.94542000       1.28453000       0.05562000
C        4.47133000       1.28445000       0.01261000
O        4.92495000       2.62415000      -0.16684000
C        5.06561000       0.74699000       1.24644000
C        5.55368000       0.31270000       2.25330000
H        0.58266000      -0.92244000       0.07024000
H        2.66410000      -0.67575000      -0.82809000
H        2.65265000      -0.67567000       0.95417000
H        2.58125000       1.84393000       0.92824000
H        2.55347000       1.83995000      -0.80701000
H        4.82036000       0.71014000      -0.85217000
H        4.70734000       3.10799000       0.64835000
H        5.99346000      -0.06975000       3.14643000
17
Properties=species:S:1:pos:R:3 energy=-1636.06 pbc="F F F"
O        0.52534000       0.72963000       0.54097000
C        1.43884000       1.30776000      -0.38244000
C        2.60092000       1.95382000       0.35852000
O        3.47966000       2.56105000      -0.58747000
C        4.59703000       3.22028000       0.03649000
C        5.25003000       4.28316000      -0.80070000
C        4.40285000       4.67088000       0.37600000
H       -0.20849000       0.36387000       0.01763000
H        0.91199000       2.05211000      -0.98824000
H        1.80437000       0.52805000      -1.05902000
H        3.14314000       1.19865000       0.94045000
H        2.22503000       2.70860000       1.05952000
H        5.25126000       2.62902000       0.67013000
H        4.85445000       4.46112000      -1.79383000
H        6.32335000       4.40340000      -0.71874000
H        4.90057000       5.05331000       1.25888000
H        3.43553000       5.11680000       0.17893000
21
Properties=species:S:1:pos:R:3 energy=-2048.73 pbc="F F F"
C        3.40719000       2.44743000      -2.14874000
C        3.47481000       2.66700000      -0.64445000
C        4.25013000       1.57163000       0.09600000
C        5.70292000       1.43000000      -0.30942000
C        6.16541000       0.27727000      -0.82437000
C        6.62048000       2.61899000      -0.12126000
C        6.77856000       3.03048000       1.33600000
H        2.78123000       3.21656000      -2.61238000
H        2.97282000       1.47058000      -2.38350000
H        4.39875000       2.50466000      -2.60778000
H        2.45191000       2.69346000      -0.24917000
H        3.91077000       3.65118000      -0.43845000
H        3.72299000       0.61921000      -0.04854000
H        4.20171000       1.77080000       1.17339000
H        5.51872000      -0.58346000      -0.96641000
H        7.20397000       0.16066000      -1.11940000
H        6.24812000       3.46851000      -0.70497000
H        7.61747000       2.39533000      -0.52239000
H        5.83536000       3.39506000       1.75463000
H        7.51136000       3.83956000       1.41951000
H        7.12719000       2.19305000       1.94912000
15
Properties=species:S:1:pos:R:3 energy=-1538.19 pbc="F F F"
O        0.95493000       0.11883000      -0.48592000
C        2.06311000       0.07133000       0.30267000
O        2.23537000      -0.86629000       1.07474000
C        3.01711000       1.27553000       0.10377000
C        2.42704000       2.70733000       0.24023000
C        3.76285000       3.12949000       0.87811000
C        3.94978000       1.65714000       1.28743000
H        0.93408000       0.90135000      -1.06815000
H        3.58633000       1.15965000      -0.83086000
H        1.56977000       2.77787000       0.92006000
H        2.17719000       3.20789000      -0.69914000
H        4.50520000       3.48346000       0.15387000
H        3.69303000       3.84720000       1.69889000
H        4.97352000       1.27886000       1.22456000
H        3.54360000       1.42044000       2.27793000
9
Properties=species:S:1:pos:R:3 energy=-1075.22 pbc="F F F"
O        0.96428000      -0.00711000       0.00000000
C        2.30995000      -0.12850000       0.00000000
O        2.90412000      -1.19187000       0.00000000
C        3.00925000       1.12871000       0.00000000
C        3.59635000       2.17586000       0.00000000
C        4.34908000       3.50996000       0.00000000
C        4.94325000       4.55253000       0.00000000
H        0.68343000       0.92744000       0.00000000
H        5.47673000       5.47462000      -0.00000000
14
Properties=species:S:1:pos:R:3 energy=-1405.43 pbc="F F F"
C       -1.02553000       0.00024000      -1.26800000
C       -0.54251000       0.99972000      -0.13248000
N       -1.30915000       0.00023000       0.77241000
C       -0.54204000      -0.99997000      -0.13245000
C        0.91757000      -0.77044000       0.23635000
O        1.72829000       0.00026000      -0.64466000
C        0.91839000       0.77006000       0.23633000
H       -2.09703000       0.00023000      -1.49984000
H       -0.44999000       0.00008000      -2.19705000
H       -0.92723000       2.01987000      -0.14210000
H       -1.01160000      -0.00005000       1.74627000
H       -0.92750000      -2.01978000      -0.14227000
H        1.28941000      -1.29514000       1.10158000
H        1.28951000       1.29500000       1.10178000
16
Properties=species:S:1:pos:R:3 energy=-1537.81 pbc="F F F"
C       -1.60836000       0.57938000       0.32226000
N       -1.54910000      -0.85009000      -0.28766000
C       -0.13861000      -0.78420000       0.16338000
C        1.15152000      -1.00045000      -0.58486000
C        2.00099000       0.18627000      -0.01544000
O        1.03310000       1.24578000       0.26029000
C       -0.20113000       0.72250000      -0.24378000
H       -2.37571000       1.21356000      -0.12975000
H       -1.70893000       0.60519000       1.41402000
H       -1.66839000      -0.86901000      -1.30180000
H       -0.02330000      -0.99980000       1.23719000
H        1.62421000      -1.96207000      -0.36659000
H        1.03624000      -0.91381000      -1.67218000
H        2.47791000      -0.08182000       0.93178000
H        2.74718000       0.53941000      -0.73173000
H       -0.25650000       0.94827000      -1.32382000
11
Properties=species:S:1:pos:R:3 energy=-1127.25 pbc="F F F"
C        1.80041000       0.45636000      -0.79435000
C        2.53282000       0.07637000       0.51328000
C        3.32852000       1.31742000       0.32763000
N        3.58864000       2.39292000       1.05443000
O        3.23882000       3.44935000       0.17296000
N        2.50458000       2.95663000      -0.93757000
C        2.68614000       1.64878000      -0.84290000
H        0.73262000       0.68790000      -0.73956000
H        1.96131000      -0.24597000      -1.61941000
H        3.12854000      -0.84020000       0.44041000
H        1.95132000       0.04048000       1.43896000
16
Properties=species:S:1:pos:R:3 energy=-1563.58 pbc="F F F"
C        1.70304000      -0.11554000      -0.12885000
C        0.86402000      -1.19027000       0.56422000
C       -0.42209000      -1.51414000      -0.17656000
C       -1.48106000      -0.43648000      -0.25430000
N       -1.38880000       0.84037000      -0.02397000
O       -0.14366000       1.27421000       0.45779000
C        0.88612000       1.10867000      -0.51483000
H        2.20363000      -0.51943000      -1.01647000
H        2.49830000       0.18589000       0.56476000
H        1.46875000      -2.10032000       0.65565000
H        0.62889000      -0.87280000       1.58775000
H       -0.89973000      -2.37394000       0.30791000
H       -0.20192000      -1.82274000      -1.20510000
H       -2.46324000      -0.78260000      -0.62037000
H        1.51704000       2.00339000      -0.50991000
H        0.47156000       1.01130000      -1.52613000
16
Properties=species:S:1:pos:R:3 energy=-1552.97 pbc="F F F"
C        0.60373000       0.35840000      -0.79506000
C        0.06749000       1.29957000       0.25076000
N        0.18334000      -0.13183000       0.51434000
C        1.31821000      -0.45810000       1.39009000
C        0.81571000      -0.68273000       2.82318000
O        1.41894000      -2.00726000       2.85429000
C        1.53842000      -1.97714000       1.40359000
H       -0.04299000       0.09832000      -1.62456000
H        1.66142000       0.38726000      -1.02639000
H       -0.94127000       1.67470000       0.12761000
H        0.75520000       1.97736000       0.74120000
H        2.23241000       0.14049000       1.30996000
H       -0.26636000      -0.74505000       2.98196000
H        1.25879000      -0.02311000       3.57495000
H        2.53064000      -2.30138000       1.07666000
H        0.77427000      -2.60904000       0.93802000
16
Properties=species:S:1:pos:R:3 energy=-1574.68 pbc="F F F"
C       -1.58533000       0.85138000       0.55061000
C       -1.18050000      -0.29426000      -0.32712000
N       -0.35397000      -1.40055000       0.18350000
C        0.98078000      -1.27287000      -0.41921000
C        1.67532000       0.04065000      -0.02188000
O        0.82744000       1.19605000       0.07274000
C       -0.50360000       1.05125000      -0.47438000
H       -2.54633000       1.31579000       0.36277000
H       -1.30149000       0.83935000       1.59531000
H       -1.86761000      -0.57790000      -1.12017000
H       -0.25722000      -1.31581000       1.19657000
H        1.60469000      -2.12307000      -0.12411000
H        0.88468000      -1.32364000      -1.51110000
H        2.14403000      -0.07891000       0.96021000
H        2.47149000       0.26955000      -0.73927000
H       -0.74558000       1.63951000      -1.35254000
19
Properties=species:S:1:pos:R:3 energy=-1897.65 pbc="F F F"
C        0.94933000       0.00549000       0.01921000
C        2.47005000       0.00994000       0.01908000
C        3.02739000       1.43282000       0.00000000
C        4.47139000       1.43282000       0.00000000
C        5.66155000       1.43282000       0.00000000
C        7.10555000       1.43282000       0.00000000
C        7.66374000       2.84633000      -0.00121000
H        0.57350000      -1.02232000       0.03298000
H        0.55569000       0.49919000      -0.87486000
H        0.55577000       0.52293000       0.89979000
H        2.83122000      -0.54769000      -0.85418000
H        2.83130000      -0.52411000       0.90693000
H        2.65575000       1.98352000       0.87224000
H        2.65574000       1.95994000      -0.88669000
H        7.48232000       0.89816000      -0.87917000
H        7.48232000       0.89966000       0.88009000
H        7.33564000       3.40147000      -0.88711000
H        8.75831000       2.82312000      -0.00119000
H        7.33564000       3.40298000       0.88375000
15
Properties=species:S:1:pos:R:3 energy=-1437.54 pbc="F F F"
C        0.75430000      -1.18560000       0.61125000
C        1.64987000      -0.14765000      -0.06985000
O        0.99611000       1.05005000      -0.48610000
C       -0.08339000       1.43496000       0.33825000
C       -1.36752000       0.67202000       0.08175000
N       -1.53430000      -0.60136000      -0.13501000
N       -0.48123000      -1.44434000      -0.11586000
H        1.31314000      -2.12346000       0.70726000
H        0.51490000      -0.87751000       1.63603000
H        2.10924000      -0.58227000      -0.96476000
H        2.46687000       0.12974000       0.60562000
H        0.17330000       1.39910000       1.40257000
H       -0.29997000       2.48363000       0.10657000
H       -2.28769000       1.28022000       0.11633000
H       -0.30372000      -1.83573000      -1.04295000
14
Properties=species:S:1:pos:R:3 energy=-1364.28 pbc="F F F"
C        1.63990000      -0.17563000      -0.14674000
C        0.76897000      -1.11711000       0.67087000
O       -0.46220000      -1.42960000       0.00471000
C       -1.41821000      -0.48176000      -0.15725000
N       -1.36609000       0.80028000       0.00892000
O       -0.12872000       1.31923000       0.43004000
C        0.88726000       1.08165000      -0.54352000
H        2.01095000      -0.67043000      -1.05144000
H        2.51822000       0.09188000       0.45280000
H        1.30098000      -2.06248000       0.82230000
H        0.55086000      -0.72006000       1.66951000
H       -2.34310000      -0.95811000      -0.51831000
H        1.56346000       1.94218000      -0.55672000
H        0.45755000       0.99464000      -1.54899000
14
Properties=species:S:1:pos:R:3 energy=-1444.86 pbc="F F F"
C        0.71888000      -1.22359000       0.51302000
O       -0.60392000      -1.56332000       0.04223000
C       -1.53134000      -0.56492000      -0.05549000
C       -1.26127000       0.74314000       0.01366000
C        0.08594000       1.25768000       0.19007000
N        1.05191000       0.95105000      -0.86488000
C        1.14203000       0.21376000       0.39620000
H        1.42945000      -1.86232000      -0.02303000
H        0.75772000      -1.51519000       1.56911000
H       -2.51721000      -0.96496000      -0.25082000
H       -2.06888000       1.45828000      -0.10722000
H        0.18904000       2.21248000       0.69110000
H        1.76333000       1.67991000      -0.91806000
H        1.99940000       0.44074000       1.01680000
13
Properties=species:S:1:pos:R:3 energy=-1300.46 pbc="F F F"
C       -0.46268000       1.38246000      -0.20999000
O       -1.55291000       0.47975000      -0.11216000
C       -1.22586000      -0.84667000      -0.50676000
C       -0.23354000      -1.38379000       0.47947000
N        1.01066000      -1.02282000       0.56608000
N        1.52833000      -0.17464000      -0.41109000
C        0.89787000       0.92146000      -0.71131000
H       -0.32168000       1.87408000       0.75666000
H       -0.78528000       2.16488000      -0.90426000
H       -0.85083000      -0.87304000      -1.53216000
H       -2.13376000      -1.45361000      -0.45287000
H       -0.61934000      -2.08038000       1.24169000
H        1.40795000       1.61424000      -1.39945000
16
Properties=species:S:1:pos:R:3 energy=-1578.82 pbc="F F F"
C        0.94691000      -0.00682000      -0.06126000
C        2.47524000      -0.05294000      -0.01398000
C        2.97015000       0.00549000       1.42803000
C        3.04065000      -1.24810000      -0.75738000
C        3.35249000      -0.58627000      -2.04162000
N        3.33455000       0.70080000      -2.02929000
O        2.98458000       1.09618000      -0.71555000
H        0.58212000       0.00054000      -1.09455000
H        0.57222000       0.91196000       0.40393000
H        0.50383000      -0.86422000       0.45594000
H        4.06456000       0.05039000       1.46500000
H        2.63751000      -0.86502000       2.00251000
H        2.60897000       0.91169000       1.92732000
H        2.33512000      -2.07157000      -0.89005000
H        3.97466000      -1.63324000      -0.33709000
H        3.62231000      -1.17796000      -2.92763000
16
Properties=species:S:1:pos:R:3 energy=-1582.2 pbc="F F F"
C        1.01161000       0.01361000      -0.03787000
C        2.53275000      -0.05214000      -0.06339000
C        3.06962000      -1.26048000      -0.79417000
C        3.29983000      -0.62951000      -2.11552000
C        3.56308000      -1.44875000      -3.33250000
N        3.30373000       0.66305000      -2.11935000
O        3.04001000       1.07726000      -0.78970000
H        0.68125000       0.93428000       0.45470000
H        0.58883000      -0.84093000       0.49904000
H        0.59386000       0.03339000      -1.05034000
H        2.91618000      -0.01282000       0.96168000
H        2.37884000      -2.10445000      -0.83989000
H        4.03509000      -1.58552000      -0.39457000
H        3.69705000      -0.80558000      -4.20614000
H        2.71823000      -2.12058000      -3.50683000
H        4.46803000      -2.04294000      -3.18025000
21
Properties=species:S:1:pos:R:3 energy=-2046.72 pbc="F F F"
C        0.98421000       0.46693000      -1.25704000
C        2.40488000       0.31605000      -0.73647000
C        3.03699000       1.67277000      -0.42419000
C        4.47488000       1.51188000       0.07404000
C        5.10923000       2.86941000       0.39117000
C        6.53425000       2.84681000       0.87925000
C        7.31851000       1.77566000       1.05913000
H        0.55479000      -0.51566000      -1.47438000
H        0.96575000       1.05713000      -2.17806000
H        0.34663000       0.96116000      -0.51799000
H        3.00741000      -0.21258000      -1.48540000
H        2.39328000      -0.30590000       0.16711000
H        2.43857000       2.18998000       0.33512000
H        3.02783000       2.29788000      -1.32489000
H        5.06586000       0.99504000      -0.69234000
H        4.47890000       0.88137000       0.97186000
H        4.50383000       3.37731000       1.15348000
H        5.07594000       3.49927000      -0.50730000
H        6.95532000       3.82615000       1.10560000
H        6.98178000       0.76531000       0.85859000
H        8.33664000       1.89322000       1.41847000
19
Properties=species:S:1:pos:R:3 energy=-1891.76 pbc="F F F"
C        1.08081000      -0.44053000       0.49452000
C        2.57690000      -0.29744000       0.26534000
C        2.96672000       1.15635000      -0.00108000
C        4.47265000       1.29464000      -0.23060000
C        4.86626000       2.74919000      -0.48709000
C        6.31577000       2.87429000      -0.70099000
C        7.49952000       2.97787000      -0.87499000
H        0.82559000      -1.48710000       0.68808000
H        0.51616000      -0.10979000      -0.38300000
H        0.75717000       0.15290000       1.35558000
H        2.87217000      -0.92410000      -0.58426000
H        3.11260000      -0.67095000       1.14571000
H        2.66591000       1.77902000       0.85034000
H        2.42531000       1.52726000      -0.88005000
H        4.77327000       0.67289000      -1.08384000
H        5.01463000       0.91249000       0.64410000
H        4.56841000       3.37098000       0.36504000
H        4.33298000       3.12976000      -1.36570000
H        8.55004000       3.06849000      -1.02878000
16
Properties=species:S:1:pos:R:3 energy=-1649.74 pbc="F F F"
C        0.55650000       1.19538000       0.65419000
C       -0.85419000       0.74639000       0.42099000
C       -0.87188000      -0.01228000      -0.85160000
C        0.52777000      -0.01919000      -1.38624000
N        1.20466000       0.00025000      -0.02454000
C        0.55736000      -1.17664000       0.68763000
C       -0.85373000      -0.73522000       0.44168000
H        0.80591000       2.13154000       0.14476000
H        0.82684000       1.25271000       1.71317000
H       -1.67386000       1.34417000       0.76691000
H       -1.70518000      -0.02201000      -1.52499000
H        0.77633000      -0.92587000      -1.94572000
H        0.77565000       0.87149000      -1.97076000
H        0.82765000      -1.20382000       1.74741000
H        0.80741000      -2.12614000       0.20437000
H       -1.67266000      -1.32348000       0.80423000
18
Properties=species:S:1:pos:R:3 energy=-1711.85 pbc="F F F"
C        0.94715000      -0.01569000       0.04208000
C        2.46298000      -0.04181000       0.03763000
C        3.17481000       1.02784000       0.91405000
C        4.25262000      -0.04431000       1.23079000
O        5.41992000      -0.02992000       0.37351000
C        3.14517000      -1.10338000       0.94553000
N        3.65983000      -2.19758000       0.12700000
H        0.54861000      -0.85476000      -0.53635000
H        0.57904000       0.91032000      -0.40948000
H        0.54495000      -0.08203000       1.05730000
H        2.83872000      -0.02269000      -0.99696000
H        2.60869000       1.35016000       1.79616000
H        3.52272000       1.91291000       0.37677000
H        4.57720000      -0.03477000       2.27691000
H        5.08321000       0.13165000      -0.52076000
H        2.57226000      -1.41537000       1.82609000
H        4.44265000      -1.95907000      -0.48057000
H        2.96465000      -2.69774000      -0.42267000
18
Properties=species:S:1:pos:R:3 energy=-1710.79 pbc="F F F"
C        0.99079000       0.13708000      -0.19568000
C        2.47242000       0.05825000      -0.05642000
C        3.33272000      -0.85188000      -0.92004000
C        2.79007000      -1.72098000      -2.00753000
O        3.60813000      -1.56572000      -3.16159000
N        3.30852000       0.60368000      -1.12228000
C        4.50939000       1.27363000      -0.62874000
H        0.61059000       1.00252000       0.35653000
H        0.52502000      -0.76067000       0.22220000
H        0.66723000       0.24219000      -1.23600000
H        2.78124000       0.19991000       0.97458000
H        4.22701000      -1.28285000      -0.48237000
H        1.76292000      -1.47405000      -2.28793000
H        2.81554000      -2.77147000      -1.70458000
H        3.68232000      -0.60020000      -3.28510000
H        4.27781000       2.31938000      -0.40240000
H        5.27901000       1.26469000      -1.40741000
H        4.93999000       0.82276000       0.27360000
16
Properties=species:S:1:pos:R:3 energy=-1607.77 pbc="F F F"
C       -1.02534000      -0.00002000      -1.19321000
C       -0.52866000       1.01480000      -0.06234000
C       -1.35205000      -0.00008000       0.86252000
C       -0.52927000      -1.01464000      -0.06240000
C        0.97472000      -0.79156000       0.23101000
N        1.85712000      -0.00042000      -0.58693000
C        0.97388000       0.79156000       0.23112000
H       -2.09688000       0.00010000      -1.42415000
H       -0.46999000       0.00007000      -2.13414000
H       -0.87680000       2.04663000      -0.11544000
H       -1.09037000      -0.00002000       1.92454000
H       -2.44261000       0.00006000       0.75980000
H       -0.87704000      -2.04661000      -0.11557000
H        1.31813000      -1.28114000       1.13230000
H        1.58281000      -0.00003000      -1.56821000
H        1.31846000       1.28081000       1.13252000
16
Properties=species:S:1:pos:R:3 energy=-1574.56 pbc="F F F"
C        0.96651000       0.01090000       0.03914000
C        2.48981000      -0.02513000      -0.05253000
C        2.97206000       0.16500000      -1.48187000
C        3.08840000      -1.24971000       0.61470000
O        3.28420000      -0.86531000       1.98268000
N        3.49455000       0.53594000       2.00306000
C        3.06240000       0.98933000       0.87620000
H        0.61939000      -0.09334000       1.07384000
H        0.51849000      -0.79817000      -0.54804000
H        0.57253000       0.96192000      -0.33754000
H        4.06565000       0.22156000      -1.53207000
H        2.58510000       1.09791000      -1.90747000
H        2.64600000      -0.66227000      -2.12147000
H        4.06590000      -1.52547000       0.20218000
H        2.43370000      -2.12573000       0.57532000
H        3.06705000       2.05796000       0.61636000
16
Properties=species:S:1:pos:R:3 energy=-1600.78 pbc="F F F"
C        0.97345000      -0.00462000       0.17534000
C        2.47304000       0.02816000      -0.04112000
C        3.26947000       1.04792000       0.80038000
N        4.21206000      -0.02928000       1.03094000
C        3.29409000      -1.08212000       0.64858000
C        5.29436000      -0.06113000       1.85348000
O        5.83234000       0.91560000       2.35802000
H        0.52915000      -0.86012000      -0.34278000
H        0.50871000       0.90497000      -0.21766000
H        0.72002000      -0.08282000       1.23754000
H        2.70741000       0.10713000      -1.11297000
H        2.79082000       1.39639000       1.72006000
H        3.68465000       1.88989000       0.24150000
H        3.72702000      -1.82714000      -0.02306000
H        2.82526000      -1.56846000       1.50916000
H        5.65609000      -1.08729000       2.03088000
16
Properties=species:S:1:pos:R:3 energy=-1593.15 pbc="F F F"
C        0.97568000       0.02041000       0.20564000
C        2.46769000      -0.04511000      -0.08452000
C        2.79110000      -0.02315000      -1.57152000
N        3.23614000       0.98066000       0.66181000
C        4.12457000       0.00400000       1.32061000
C        3.24345000      -1.10120000       0.72629000
O        3.18798000      -2.30665000       0.84539000
H        0.76777000       0.01568000       1.28182000
H        0.45819000      -0.84055000      -0.23187000
H        0.52997000       0.92779000      -0.21712000
H        3.87154000      -0.04843000      -1.75549000
H        2.39287000       0.87872000      -2.04963000
H        2.35243000      -0.89113000      -2.07591000
H        2.67781000       1.52297000       1.32308000
H        5.14959000       0.00103000       0.94153000
H        4.12181000       0.04493000       2.41187000
14
Properties=species:S:1:pos:R:3 energy=-1488.33 pbc="F F F"
C        1.01694000      -0.06638000      -0.00628000
C        2.47885000       0.09505000      -0.00024000
C        3.33830000       1.16759000       0.00224000
N        4.63711000       0.72731000       0.00839000
C        4.52376000      -0.58563000       0.00949000
C        5.59165000      -1.60456000       0.01522000
O        3.23419000      -1.04387000       0.00435000
H        0.51422000       0.90565000       0.00261000
H        0.68886000      -0.62714000       0.87430000
H        0.69442000      -0.60836000      -0.90053000
H        3.09533000       2.22083000      -0.00003000
H        5.17871000      -2.61775000       0.02362000
H        6.22308000      -1.48494000       0.90047000
H        6.21987000      -1.49816000      -0.87399000
18
Properties=species:S:1:pos:R:3 energy=-1728.42 pbc="F F F"
C        0.96157000       0.02771000       0.07128000
C        2.48271000       0.00602000      -0.07507000
C        3.01830000      -1.34064000      -0.60728000
N        2.69336000      -1.56422000      -2.02575000
C        3.18563000      -0.41757000      -2.80611000
C        2.64356000       0.91711000      -2.27669000
O        2.94388000       1.10175000      -0.88620000
H        0.62568000       1.01678000       0.40171000
H        0.63169000      -0.71580000       0.80428000
H        0.44981000      -0.18260000      -0.87299000
H        2.91029000       0.16957000       0.92100000
H        2.61514000      -2.16698000      -0.01149000
H        4.10961000      -1.36033000      -0.49300000
H        3.16024000      -2.41240000      -2.34642000
H        4.28176000      -0.40636000      -2.76954000
H        2.89202000      -0.54229000      -3.85333000
H        3.11115000       1.74364000      -2.82149000
H        1.56292000       1.00045000      -2.43434000
15
Properties=species:S:1:pos:R:3 energy=-1481.21 pbc="F F F"
C        0.99215000      -0.01441000       0.02314000
C        2.50718000       0.00396000       0.01782000
C        3.11027000       1.11120000       0.87901000
N        4.43396000       0.60742000       1.28569000
N        4.30557000      -0.79028000       1.23031000
C        3.12275000      -1.21373000       0.64857000
O        2.70866000      -2.35885000       0.61044000
H        0.61371000      -0.83473000      -0.59528000
H        0.59062000       0.92420000      -0.37095000
H        0.59697000      -0.15984000       1.03432000
H        2.88295000       0.07156000      -1.01094000
H        2.50962000       1.29207000       1.77890000
H        3.19361000       2.05728000       0.33346000
H        5.12228000       0.88111000       0.57720000
H        4.83011000      -1.41933000       1.83161000
14
Properties=species:S:1:pos:R:3 energy=-1377.12 pbc="F F F"
C        0.98278000      -0.00585000       0.18444000
C        2.46687000       0.04729000      -0.10818000
C        3.30145000       1.04474000       0.73391000
N        4.27079000      -0.05456000       0.91704000
O        4.72292000      -0.17838000       2.25114000
C        3.33974000      -1.01434000       0.59198000
O        3.24319000      -2.18200000       0.88801000
H        0.52171000      -0.86018000      -0.32210000
H        0.48749000       0.90262000      -0.17426000
H        0.78222000      -0.10072000       1.25677000
H        2.67121000       0.09957000      -1.18596000
H        2.84821000       1.38800000       1.66954000
H        3.71556000       1.89050000       0.18061000
H        5.53463000      -0.70447000       2.12076000
18
Properties=species:S:1:pos:R:3 energy=-1718.88 pbc="F F F"
C        0.86497000      -0.03737000      -0.23365000
C        2.31175000       0.18403000       0.08460000
C        2.70481000       0.04434000       1.52186000
O        3.21045000      -0.45870000      -0.83332000
C        3.15744000       0.97590000      -0.89906000
C        4.42726000       1.66858000      -0.53049000
N        5.23666000       1.82896000      -1.73382000
H        0.66621000       0.03638000      -1.30809000
H        0.24768000       0.70972000       0.27506000
H        0.54595000      -1.03092000       0.09744000
H        3.78215000      -0.09406000       1.65255000
H        2.21229000      -0.82353000       1.97311000
H        2.40367000       0.93529000       2.08182000
H        2.65872000       1.43685000      -1.74400000
H        5.00343000       1.10937000       0.21268000
H        4.19957000       2.65360000      -0.11153000
H        5.42865000       0.90083000      -2.11400000
H        6.14218000       2.21719000      -1.47575000
16
Properties=species:S:1:pos:R:3 energy=-1530.77 pbc="F F F"
C       -1.82888000       0.97657000       0.39012000
C       -1.33349000      -0.36131000      -0.09704000
C       -0.24044000      -1.19891000       0.43872000
N        0.70640000      -0.45783000      -0.37978000
C        1.97066000      -0.07278000       0.10630000
C        0.78671000       0.89730000       0.16279000
C       -0.59969000       0.90508000      -0.49287000
H       -2.74115000       1.36514000      -0.04886000
H       -1.71186000       1.21206000       1.44124000
H       -1.90660000      -0.86733000      -0.86691000
H       -0.10858000      -1.11217000       1.52336000
H       -0.31339000      -2.24595000       0.13548000
H        2.32958000      -0.51687000       1.02569000
H        2.73755000       0.12651000      -0.63178000
H        0.70203000       1.18717000       1.21666000
H       -0.69420000       1.26997000      -1.51266000
18
Properties=species:S:1:pos:R:3 energy=-1711.15 pbc="F F F"
C        0.88829000      -0.09354000       0.12394000
C        2.40363000      -0.02359000      -0.04180000
C        2.84509000      -0.05034000      -1.50464000
O        2.36263000       1.10161000      -2.18997000
C        3.10197000       1.05042000       0.82979000
N        4.08383000       0.03908000       1.26737000
C        3.16971000      -1.03836000       0.84267000
H        0.60009000      -0.13649000       1.18015000
H        0.48338000      -0.98470000      -0.36623000
H        0.40153000       0.78576000      -0.30945000
H        2.47395000      -0.94407000      -2.01801000
H        3.93630000      -0.04864000      -1.59699000
H        1.41204000       0.97457000      -2.34976000
H        2.49647000       1.44137000       1.65643000
H        3.53526000       1.90209000       0.29590000
H        4.95324000       0.07190000       0.73379000
H        3.65711000      -1.86745000       0.31909000
H        2.59464000      -1.45888000       1.67668000
13
Properties=species:S:1:pos:R:3 energy=-1370.15 pbc="F F F"
C       -1.48640000       0.77163000       0.54344000
C       -1.11661000      -0.43807000      -0.27507000
C       -0.19289000      -1.44714000       0.26136000
N        1.06846000      -1.22111000       0.43787000
N        1.64268000       0.02730000       0.13913000
C        0.93550000       1.00527000      -0.32550000
C       -0.50494000       0.89152000      -0.59337000
H       -2.47510000       1.19399000       0.40754000
H       -1.11011000       0.84155000       1.55889000
H       -1.85991000      -0.81902000      -0.96583000
H       -0.60610000      -2.43627000       0.51509000
H        1.42136000       1.97063000      -0.53957000
H       -0.84382000       1.38934000      -1.49445000
14
Properties=species:S:1:pos:R:3 energy=-1460.57 pbc="F F F"
C        0.90817000       0.08677000      -0.00831000
C        2.38544000       0.03900000      -0.00261000
C        3.26555000       1.09500000       0.00630000
O        4.53840000       0.63503000       0.00877000
N        4.52724000      -0.74592000       0.00147000
C        3.23706000      -1.09993000      -0.00527000
C        2.87185000      -2.53497000      -0.01443000
H        0.54252000       1.11868000      -0.00000000
H        0.50447000      -0.42162000       0.87304000
H        0.51197000      -0.40475000      -0.90255000
H        3.15875000       2.16965000       0.01148000
H        1.78646000      -2.67477000      -0.01060000
H        3.27856000      -3.04021000       0.86815000
H        3.27081000      -3.02654000      -0.90813000
15
Properties=species:S:1:pos:R:3 energy=-1478.67 pbc="F F F"
C       -1.01698000       0.00019000      -1.27076000
C       -0.54065000       0.99849000      -0.13276000
N       -1.31247000      -0.00005000       0.76562000
C       -0.54054000      -0.99877000      -0.13266000
C        0.92558000      -0.77823000       0.25721000
N        1.87464000      -0.00002000      -0.51064000
C        0.92566000       0.77829000       0.25766000
H       -2.08806000       0.00008000      -1.50616000
H       -0.44393000       0.00005000      -2.20091000
H       -0.92584000       2.01901000      -0.14331000
H       -1.01565000      -0.00012000       1.74025000
H       -0.92579000      -2.01901000      -0.14362000
H        1.22239000      -1.28319000       1.16639000
H        1.65233000      -0.00002000      -1.50579000
H        1.22237000       1.28282000       1.16652000
18
Properties=species:S:1:pos:R:3 energy=-1717.71 pbc="F F F"
C        0.92314000       0.03314000      -0.14973000
C        2.42142000       0.02036000       0.03753000
N        2.86159000      -0.08494000       1.43750000
C        3.26159000      -0.66130000      -1.01893000
C        3.23485000       0.84322000      -0.94069000
C        4.44435000       1.61266000      -0.53459000
O        5.24766000       1.84460000      -1.68632000
H        0.64132000       0.10373000      -1.20623000
H        0.48152000       0.88823000       0.37329000
H        0.48004000      -0.88436000       0.25253000
H        3.83179000      -0.38713000       1.51022000
H        2.32129000      -0.79691000       1.93038000
H        2.75748000      -1.12965000      -1.85772000
H        4.16329000      -1.18112000      -0.71677000
H        2.69076000       1.37802000      -1.71347000
H        5.05913000       1.09095000       0.20549000
H        4.15628000       2.58352000      -0.12019000
H        5.45743000       0.97161000      -2.05821000
18
Properties=species:S:1:pos:R:3 energy=-1721.0 pbc="F F F"
C        0.98154000       0.14736000      -0.18287000
C        2.47261000       0.03320000       0.00816000
N        2.91437000      -0.07293000       1.42442000
C        3.27426000      -0.70706000      -1.03925000
C        3.41594000       0.78448000      -0.93377000
C        2.93464000       1.67027000      -2.03486000
O        4.62450000       1.25585000      -0.30603000
H        0.68574000       0.09954000      -1.23561000
H        0.61597000       1.09267000       0.23211000
H        0.46954000      -0.67348000       0.33191000
H        3.79802000      -0.58340000       1.47343000
H        2.25511000      -0.64442000       1.95443000
H        2.75424000      -1.11211000      -1.90029000
H        4.12081000      -1.31168000      -0.73561000
H        2.09692000       1.23855000      -2.58982000
H        3.74263000       1.85078000      -2.75125000
H        2.61705000       2.63644000      -1.63082000
H        4.43744000       1.40120000       0.64177000
15
Properties=species:S:1:pos:R:3 energy=-1447.74 pbc="F F F"
C        1.10312000       0.10962000       0.06070000
C        2.59623000       0.04196000      -0.07751000
N        3.22387000      -1.10084000       0.01022000
C        4.66174000      -0.73560000      -0.08974000
C        4.74573000       0.77723000      -0.31454000
N        3.34823000       1.17909000      -0.29979000
O        3.08131000       2.18410000       0.63739000
H        0.66792000      -0.88931000      -0.02730000
H        0.69054000       0.75067000      -0.72317000
H        0.84614000       0.52661000       1.03817000
H        5.16987000      -1.01643000       0.83951000
H        5.12934000      -1.28422000      -0.91223000
H        5.19214000       1.00490000      -1.28920000
H        5.33938000       1.26564000       0.46431000
H        3.03662000       2.98985000       0.08863000
16
Properties=species:S:1:pos:R:3 energy=-1534.8 pbc="F F F"
C       -1.72108000       0.93494000       0.38305000
C       -1.33408000      -0.37992000      -0.20599000
N       -0.30784000      -1.28590000       0.28348000
C        0.76962000      -0.59597000      -0.43267000
C        2.02023000      -0.09932000       0.11584000
C        0.89429000       0.90494000      -0.02351000
C       -0.56179000       0.88593000      -0.59353000
H       -2.64613000       1.38546000       0.04137000
H       -1.52070000       1.10282000       1.43354000
H       -2.00646000      -0.80133000      -0.94937000
H       -0.19405000      -1.19080000       1.29239000
H        0.85398000      -0.88315000      -1.48644000
H        2.30701000      -0.42555000       1.10932000
H        2.86530000       0.01279000      -0.55465000
H        0.84367000       1.36443000       0.96697000
H       -0.72443000       1.29694000      -1.58581000
12
Properties=species:S:1:pos:R:3 energy=-1288.47 pbc="F F F"
C        1.04554000      -0.02667000      -0.00477000
C        2.51640000       0.09279000      -0.00657000
N        3.26131000       1.18185000      -0.00796000
C        4.54480000       0.69343000      -0.00955000
C        4.51818000      -0.67796000      -0.00910000
O        5.40571000      -1.65603000      -0.00997000
O        3.22013000      -1.08113000      -0.00728000
H        0.57778000       0.96223000       0.00722000
H        0.70718000      -0.57669000       0.87812000
H        0.70373000      -0.55697000      -0.89833000
H        5.40021000       1.35184000      -0.01085000
H        6.28197000      -1.23821000      -0.01119000
13
Properties=species:S:1:pos:R:3 energy=-1357.97 pbc="F F F"
C        0.92232000      -0.14435000       0.00044000
C        2.39076000       0.00312000       0.00486000
C        3.16596000       1.14294000       0.05531000
N        2.91936000       2.45704000       0.10704000
O        4.47312000       0.76586000       0.04203000
C        4.41830000      -0.59213000      -0.01360000
N        3.20952000      -1.10595000      -0.04270000
H        0.41908000       0.82700000       0.01087000
H        0.59500000      -0.70669000       0.88044000
H        0.59779000      -0.68536000      -0.89390000
H        3.68719000       3.09631000      -0.07055000
H        2.00549000       2.82125000      -0.13630000
H        5.36514000      -1.11307000      -0.02983000
16
Properties=species:S:1:pos:R:3 energy=-1594.7 pbc="F F F"
C        0.96629000      -0.00172000      -0.04374000
C        2.49626000       0.01374000      -0.03960000
N        2.98441000       0.17027000      -1.40781000
C        3.07874000      -1.23636000       0.66595000
O        3.55416000      -0.84157000       1.97698000
C        3.56836000       0.53389000       1.92023000
C        3.02060000       1.08695000       0.84364000
H        0.56238000      -0.11717000       0.96951000
H        0.58131000      -0.83283000      -0.64677000
H        0.55517000       0.92869000      -0.45439000
H        4.00184000       0.24132000      -1.39727000
H        2.63665000       1.04406000      -1.79819000
H        3.94096000      -1.65004000       0.12587000
H        2.34443000      -2.04166000       0.78236000
H        3.99684000       1.01854000       2.78116000
H        2.92535000       2.14848000       0.67255000
15
Properties=species:S:1:pos:R:3 energy=-1446.43 pbc="F F F"
C        0.97173000       0.00329000       0.00282000
C        2.49418000      -0.03318000      -0.05910000
N        2.96526000       0.17652000      -1.43365000
C        3.09096000      -1.25879000       0.62023000
O        3.34673000      -0.85745000       1.97512000
N        3.53152000       0.54759000       1.98459000
C        3.06007000       0.99104000       0.86897000
H        0.60863000      -0.10882000       1.03148000
H        0.53160000      -0.80157000      -0.59653000
H        0.58062000       0.95753000      -0.37016000
H        3.98544000       0.20867000      -1.45539000
H        2.63388000       1.07086000      -1.79327000
H        4.05035000      -1.55880000       0.18239000
H        2.42299000      -2.12567000       0.61283000
H        3.03300000       2.06084000       0.61659000
13
Properties=species:S:1:pos:R:3 energy=-1353.03 pbc="F F F"
C        1.17970000       0.03298000       0.00636000
C        2.65186000       0.04462000      -0.00048000
N        3.48060000       1.06628000       0.00113000
N        4.75317000       0.53385000      -0.00748000
C        4.60764000      -0.77349000      -0.01360000
C        5.63302000      -1.82959000      -0.02408000
O        3.29544000      -1.16407000      -0.00979000
H        0.78734000      -0.98827000      -0.00252000
H        0.79285000       0.55542000      -0.87338000
H        0.80131000       0.53683000       0.90051000
H        5.18166000      -2.82628000      -0.01005000
H        6.28211000      -1.73626000       0.85162000
H        6.25227000      -1.74740000      -0.92221000
14
Properties=species:S:1:pos:R:3 energy=-1428.31 pbc="F F F"
C        1.09050000      -0.05011000      -0.08429000
C        2.55948000       0.16691000      -0.10703000
N        3.13673000       1.25854000      -0.50156000
O        4.55666000       1.12052000      -0.36669000
C        4.80490000      -0.14721000       0.28755000
C        4.57418000      -1.40326000      -0.49910000
C        3.48794000      -0.85067000       0.38507000
H        0.86286000      -1.11843000      -0.12347000
H        0.62656000       0.44969000      -0.93897000
H        0.68136000       0.36993000       0.83880000
H        5.47548000      -0.16893000       1.13595000
H        5.08594000      -2.30175000      -0.17622000
H        4.46644000      -1.31372000      -1.57416000
H        3.25244000      -1.35274000       1.31324000
14
Properties=species:S:1:pos:R:3 energy=-1370.72 pbc="F F F"
C        1.05647000       0.02990000       0.11700000
C        2.54229000       0.04722000      -0.12345000
N        3.13867000       1.19866000      -0.20953000
O        4.52693000       1.12433000      -0.48393000
C        5.16860000      -0.02379000       0.07168000
O        4.64284000      -1.22402000      -0.47734000
C        3.26180000      -1.29076000      -0.19731000
H        0.68174000      -0.99622000       0.14395000
H        0.55245000       0.57300000      -0.68754000
H        0.83798000       0.51592000       1.07199000
H        6.23017000       0.02931000      -0.18519000
H        5.08326000      -0.02034000       1.16538000
H        3.12683000      -1.79759000       0.76475000
H        2.78376000      -1.90558000      -0.96637000
13
Properties=species:S:1:pos:R:3 energy=-1317.48 pbc="F F F"
C        0.95572000      -0.00432000       0.06394000
C        2.46877000      -0.00179000       0.10971000
O        2.92533000      -0.00079000       1.44164000
C        3.05234000       1.12028000      -0.69847000
N        3.80783000       0.71545000      -1.66712000
N        3.80988000      -0.71562000      -1.66638000
C        3.05550000      -1.12246000      -0.69743000
H        0.57572000       0.00213000      -0.96367000
H        0.54991000       0.87198000       0.58165000
H        0.55354000      -0.88948000       0.56908000
H        3.90098000       0.00107000       1.41469000
H        2.85192000       2.17248000      -0.45622000
H        2.85868000      -2.17457000      -0.45468000
14
Properties=species:S:1:pos:R:3 energy=-1377.11 pbc="F F F"
C        0.98464000       0.01586000      -0.00982000
C        2.50461000      -0.01226000      -0.04242000
O        2.95101000       0.17729000      -1.37288000
C        3.10257000      -1.24412000       0.61376000
O        3.39100000      -0.86139000       1.96577000
N        3.54805000       0.54661000       2.00031000
C        3.05233000       1.00537000       0.90312000
H        0.59211000      -0.09259000       1.00722000
H        0.56906000      -0.78479000      -0.63109000
H        0.60684000       0.96074000      -0.41685000
H        3.92324000       0.11206000      -1.38128000
H        4.03740000      -1.56201000       0.13887000
H        2.41748000      -2.09728000       0.62312000
H        3.00116000       2.07733000       0.66355000
14
Properties=species:S:1:pos:R:3 energy=-1386.37 pbc="F F F"
C        0.99032000      -0.03029000       0.04991000
C        2.47985000       0.05457000      -0.22492000
O        2.90919000      -1.13262000      -0.89463000
N        3.40293000      -0.71403000      -2.14611000
C        3.27912000       0.56967000      -2.14764000
C        3.64368000       1.46594000      -3.27123000
O        2.74976000       1.16182000      -1.06334000
H        0.63575000       0.87190000       0.55775000
H        0.75345000      -0.90764000       0.65926000
H        0.42870000      -0.11991000      -0.88699000
H        3.04405000       0.15882000       0.70800000
H        3.66091000       2.50804000      -2.94109000
H        2.90856000       1.35614000      -4.07280000
H        4.63458000       1.19901000      -3.64766000
18
Properties=species:S:1:pos:R:3 energy=-1747.9 pbc="F F F"
C       -1.65170000       0.63389000       0.22722000
C       -1.48056000      -0.85358000      -0.28376000
C       -0.13480000      -0.75766000       0.42372000
N        1.07712000      -1.24875000      -0.20930000
C        2.04514000      -0.17524000       0.14025000
C        1.19854000       1.02985000       0.62082000
C       -0.12073000       0.73541000      -0.05088000
H       -2.29172000       1.26414000      -0.39495000
H       -1.94266000       0.74131000       1.27755000
H       -1.45260000      -0.96377000      -1.37468000
H       -2.19114000      -1.57188000       0.13314000
H       -0.18802000      -0.93797000       1.50700000
H        1.01700000      -1.31868000      -1.22508000
H        2.73569000      -0.50422000       0.92342000
H        2.62996000       0.09029000      -0.74752000
H        1.11126000       1.04725000       1.71353000
H        1.63044000       1.97950000       0.29083000
H        0.01888000       0.90975000      -1.13531000
13
Properties=species:S:1:pos:R:3 energy=-1311.5 pbc="F F F"
C        0.95276000      -0.08188000       0.00577000
C        2.46695000       0.05888000       0.00619000
C        2.90335000       1.47640000      -0.00326000
N        3.09077000       2.14100000      -1.14729000
O        3.48966000       3.41857000      -0.75984000
N        3.54490000       3.52733000       0.62942000
C        3.18236000       2.32606000       1.07351000
H        0.66940000      -1.13907000       0.01648000
H        0.51182000       0.37959000      -0.88481000
H        0.51042000       0.39795000       0.88573000
H        2.87894000      -0.46383000      -0.86616000
H        2.87454000      -0.44311000       0.89113000
H        3.14068000       2.13741000       2.13520000
18
Properties=species:S:1:pos:R:3 energy=-1714.18 pbc="F F F"
C        2.37017000      -0.45673000      -1.52132000
C        2.42923000       0.06418000      -0.09349000
C        3.33032000       1.28946000       0.00591000
N        2.72353000       2.52010000      -0.56287000
C        3.23518000       3.29543000       0.58527000
C        3.37457000       1.98783000       1.39211000
O        4.57578000       1.81834000       2.17524000
H        1.75018000      -1.35731000      -1.57164000
H        3.37039000      -0.70931000      -1.88871000
H        1.94211000       0.28861000      -2.19941000
H        2.82389000      -0.72796000       0.55342000
H        1.41471000       0.28611000       0.25849000
H        4.33371000       1.09094000      -0.39648000
H        1.70359000       2.49511000      -0.60649000
H        4.18191000       3.80692000       0.37755000
H        2.52794000       4.02405000       0.99232000
H        2.49216000       1.78551000       2.01292000
H        5.30640000       2.02578000       1.56671000
16
Properties=species:S:1:pos:R:3 energy=-1589.06 pbc="F F F"
C        2.53071000      -0.53383000      -1.51761000
C        2.43046000       0.06802000      -0.12433000
C        3.40852000       1.22257000       0.04189000
N        2.98415000       2.46731000      -0.64086000
C        3.07738000       3.30014000       0.57213000
C        3.29284000       2.00396000       1.35962000
O        3.34324000       1.71689000       2.53637000
H        1.85096000      -1.38634000      -1.61298000
H        3.54831000      -0.88323000      -1.72160000
H        2.26714000       0.19859000      -2.28740000
H        2.66108000      -0.71164000       0.61128000
H        1.39855000       0.38769000       0.06518000
H        4.44745000       0.94325000      -0.17256000
H        2.04127000       2.42989000      -1.03126000
H        3.93562000       3.97610000       0.59142000
H        2.16209000       3.83719000       0.83032000
10
Properties=species:S:1:pos:R:3 energy=-1072.55 pbc="F F F"
C        1.11565000       0.02560000       0.07174000
C        2.31366000       0.03459000      -0.01104000
C        3.73535000       0.04766000      -0.11374000
N        4.38043000      -1.05951000      -0.03541000
O        5.73244000      -0.68065000      -0.18069000
C        5.72180000       0.73966000      -0.35923000
O        4.39034000       1.20619000      -0.29880000
H        0.05236000       0.01070000       0.14182000
H        6.15502000       0.98286000      -1.33437000
H        6.31701000       1.20653000       0.43158000
18
Properties=species:S:1:pos:R:3 energy=-1711.42 pbc="F F F"
C        2.17698000      -0.55605000      -1.43869000
C        2.47618000      -0.03260000      -0.04188000
C        3.26401000       1.27544000      -0.08994000
O        4.55092000       1.04180000      -0.72251000
C        2.48378000       2.52746000      -0.57760000
N        3.05934000       3.29985000       0.54551000
C        3.32257000       2.03397000       1.26595000
H        1.59951000      -1.48396000      -1.37899000
H        3.09818000      -0.76667000      -1.99108000
H        1.59666000       0.16918000      -2.01761000
H        3.04307000      -0.78837000       0.51499000
H        1.52782000       0.10817000       0.49107000
H        4.99496000       1.90580000      -0.70697000
H        1.39108000       2.44351000      -0.53201000
H        2.76051000       2.90128000      -1.56841000
H        3.90318000       3.81689000       0.30041000
H        4.28623000       2.00424000       1.78401000
H        2.53664000       1.77247000       1.98453000
16
Properties=species:S:1:pos:R:3 energy=-1563.71 pbc="F F F"
C        0.85902000       0.09658000       0.21859000
C        2.31020000      -0.26336000       0.04949000
C        2.72643000      -1.54001000       0.08592000
C        3.27334000       0.88575000      -0.12058000
C        3.02733000       1.57144000      -1.44076000
N        2.61149000       2.79639000      -1.48652000
O        2.47707000       3.17977000      -2.82536000
H        0.73387000       0.79163000       1.05550000
H        0.23974000      -0.78369000       0.42359000
H        0.47034000       0.56946000      -0.68936000
H        2.02947000      -2.36103000       0.22768000
H        3.77503000      -1.80282000      -0.01467000
H        4.31211000       0.53740000      -0.12357000
H        3.16127000       1.59924000       0.70267000
H        3.22477000       0.98726000      -2.35739000
H        2.17032000       4.10286000      -2.74870000
18
Properties=species:S:1:pos:R:3 energy=-1706.44 pbc="F F F"
C        0.97446000      -0.05889000      -0.04209000
C        2.50514000      -0.03105000       0.05071000
C        2.96113000      -0.77098000       1.31372000
C        3.11487000      -0.69852000      -1.18816000
C        2.93913000       1.42727000       0.05100000
N        3.57884000       1.96394000       1.04041000
O        3.82849000       3.30798000       0.74248000
H        0.61960000       0.45964000      -0.94014000
H        0.51868000       0.43951000       0.82060000
H        0.59676000      -1.08728000      -0.07698000
H        2.54267000      -0.31300000       2.21741000
H        4.05254000      -0.75425000       1.41251000
H        2.64406000      -1.81938000       1.29458000
H        2.80084000      -0.19381000      -2.10882000
H        2.81445000      -1.74929000      -1.26223000
H        4.20967000      -0.66104000      -1.15609000
H        2.67550000       2.02313000      -0.84312000
H        4.30284000       3.61328000       1.53862000
18
Properties=species:S:1:pos:R:3 energy=-1710.3 pbc="F F F"
C        0.95176000      -0.10295000      -0.20029000
C        2.46070000       0.03259000      -0.03191000
C        3.22572000      -0.82963000      -1.02950000
C        2.89156000       1.49384000      -0.12825000
C        2.68643000       2.24166000      -1.42709000
N        3.42935000       2.03208000       0.92724000
O        3.78208000       3.36650000       0.69831000
H        0.42195000       0.55384000       0.49816000
H        0.63280000      -1.13244000      -0.00594000
H        0.62771000       0.16162000      -1.21211000
H        2.71648000      -0.31827000       0.97666000
H        2.96354000      -0.58741000      -2.06471000
H        3.00741000      -1.89085000      -0.86943000
H        4.30618000      -0.68534000      -0.92029000
H        2.17689000       1.62412000      -2.16900000
H        3.65839000       2.53845000      -1.83174000
H        2.07890000       3.13299000      -1.24617000
H        4.16192000       3.63156000       1.55673000
18
Properties=species:S:1:pos:R:3 energy=-1759.89 pbc="F F F"
C        2.65271000      -1.43326000       0.08202000
C        2.44124000      -0.16758000       0.90403000
C        3.11633000       1.06033000       0.27506000
C        2.66436000       2.33680000       0.98655000
C        4.63686000       0.97412000       0.33946000
N        5.29435000       1.81345000      -0.51312000
O        5.26318000       0.25314000       1.10650000
H        2.12491000      -2.27396000       0.54342000
H        3.71171000      -1.69940000       0.01541000
H        2.26585000      -1.30846000      -0.93449000
H        2.81180000      -0.33406000       1.92271000
H        1.36157000       0.00938000       0.98319000
H        2.82132000       1.12591000      -0.78006000
H        2.94549000       2.31887000       2.04569000
H        1.57743000       2.45447000       0.92417000
H        3.12235000       3.22622000       0.54059000
H        4.82535000       2.33599000      -1.23851000
H        6.30504000       1.76325000      -0.52495000
14
Properties=species:S:1:pos:R:3 energy=-1462.2 pbc="F F F"
C        1.00100000      -0.05423000       0.00309000
C        2.52000000       0.00000000       0.00000000
C        3.00202000       1.36117000       0.00000000
C        3.39930000       2.48307000       0.00000000
C        3.94528000       3.81741000       0.00000000
N        5.30243000       3.89743000       0.00000000
O        3.21866000       4.79944000       0.00000000
H        0.65766000      -1.09366000       0.00240000
H        0.58496000       0.44184000      -0.88073000
H        0.58869000       0.43942000       0.89000000
H        2.89564000      -0.53272000      -0.88084000
H        2.89931000      -0.53410000       0.87843000
H        5.88588000       3.07337000       0.00000000
H        5.72835000       4.81297000       0.00000000
18
Properties=species:S:1:pos:R:3 energy=-1709.71 pbc="F F F"
C        1.55986000      -0.49080000      -0.63508000
C        2.91295000      -0.49224000       0.05622000
C        3.66841000       0.80926000      -0.19018000
C        5.00826000       0.77874000       0.51723000
C        5.05140000       1.18302000       1.97141000
N        6.04226000       0.35814000      -0.14983000
O        7.19236000       0.35186000       0.64606000
H        1.04383000      -1.44049000      -0.46101000
H        1.67076000      -0.35819000      -1.71644000
H        0.92526000       0.31551000      -0.25302000
H        3.50472000      -1.34036000      -0.30807000
H        2.77088000      -0.64833000       1.13179000
H        3.09372000       1.66954000       0.17111000
H        3.83747000       0.95429000      -1.26398000
H        4.08026000       1.56688000       2.29409000
H        5.79968000       1.96709000       2.11556000
H        5.30691000       0.31423000       2.58369000
H        7.86885000       0.01205000       0.03126000
18
Properties=species:S:1:pos:R:3 energy=-1760.42 pbc="F F F"
C        1.16895000      -0.51816000      -0.04088000
C        2.67142000      -0.28781000       0.00019000
C        3.01026000       1.20254000       0.00030000
C        4.51919000       1.43000000       0.04476000
C        4.87530000       2.90096000       0.01659000
N        6.21708000       3.14883000       0.02932000
O        4.06685000       3.81956000      -0.01270000
H        0.95050000      -1.59022000      -0.05091000
H        0.72862000      -0.07297000      -0.93825000
H        0.68179000      -0.07995000       0.83539000
H        3.13358000      -0.77408000      -0.86740000
H        3.08459000      -0.76440000       0.89726000
H        2.53778000       1.68910000       0.86267000
H        2.59120000       1.67540000      -0.89663000
H        4.99635000       0.94560000      -0.81484000
H        4.93642000       0.99423000       0.96004000
H        6.91522000       2.41928000       0.04370000
H        6.51658000       4.11517000       0.00735000
14
Properties=species:S:1:pos:R:3 energy=-1472.45 pbc="F F F"
C        1.35708000      -0.58854000      -0.18674000
C        2.65479000      -0.29595000      -0.04348000
C        3.16815000       1.05211000      -0.11298000
C        4.46797000       1.34181000       0.02879000
N        4.93415000       2.62688000      -0.04070000
C        6.24463000       2.99609000       0.09353000
O        6.62365000       4.15835000       0.02503000
H        1.01468000      -1.61724000      -0.12718000
H        0.60584000       0.17444000      -0.36531000
H        3.36081000      -1.10489000       0.13357000
H        2.44758000       1.84777000      -0.28905000
H        5.20745000       0.56369000       0.20532000
H        4.29047000       3.39317000      -0.20317000
H        6.93470000       2.15467000       0.26945000
18
Properties=species:S:1:pos:R:3 energy=-1724.16 pbc="F F F"
C        3.09631000      -1.43204000       1.35856000
C        3.01229000       0.07236000       1.45577000
C        2.57833000       0.63887000       2.59767000
C        3.40617000       0.81956000       0.19098000
N        3.13327000       2.26902000       0.24053000
C        4.89982000       0.63539000      -0.17664000
O        5.22839000       1.45638000      -1.30134000
H        4.13505000      -1.75437000       1.23752000
H        2.51524000      -1.79081000       0.50276000
H        2.70212000      -1.92688000       2.25291000
H        2.30023000       0.03357000       3.45695000
H        2.48153000       1.71082000       2.72743000
H        2.80295000       0.43532000      -0.64123000
H        3.65399000       2.67277000       1.01856000
H        2.14496000       2.39932000       0.45383000
H        5.12256000      -0.40138000      -0.44568000
H        5.55289000       0.92748000       0.65315000
H        4.63603000       2.23284000      -1.21273000
18
Properties=species:S:1:pos:R:3 energy=-1752.28 pbc="F F F"
C        0.95012000      -0.13903000      -0.03000000
C        2.47837000      -0.19321000       0.12523000
C        2.85599000      -1.09347000       1.31197000
C        3.07474000      -0.80163000      -1.15727000
N        3.03818000       1.15581000       0.29436000
C        2.72918000       2.01159000       1.32077000
O        1.94967000       1.80420000       2.23721000
H        0.66175000       0.52596000      -0.85228000
H        0.45933000       0.23066000       0.87603000
H        0.53880000      -1.13273000      -0.24061000
H        2.42002000      -0.73639000       2.25051000
H        3.94287000      -1.12723000       1.44920000
H        2.50405000      -2.11961000       1.15764000
H        2.82843000      -0.19210000      -2.03464000
H        2.69616000      -1.81446000      -1.33412000
H        4.16798000      -0.85683000      -1.09674000
H        3.72334000       1.47573000      -0.37843000
H        3.28527000       2.96002000       1.23340000
20
Properties=species:S:1:pos:R:3 energy=-1866.88 pbc="F F F"
C        0.97049000      -0.01285000       0.07128000
C        2.51101000       0.01385000       0.06889000
C        3.00955000      -0.55155000       1.41298000
C        3.07430000      -0.87789000      -1.06934000
N        2.69406000      -0.43522000      -2.41469000
C        3.01568000       1.46939000      -0.06335000
O        2.56469000       2.09024000      -1.26148000
H        0.54631000       0.42016000      -0.84042000
H        0.57064000       0.55743000       0.91777000
H        0.59579000      -1.03932000       0.15752000
H        2.64246000       0.04533000       2.25565000
H        4.10455000      -0.55445000       1.45974000
H        2.66665000      -1.58203000       1.56084000
H        2.74115000      -1.91448000      -0.93650000
H        4.16963000      -0.88762000      -1.01716000
H        1.68771000      -0.56855000      -2.53827000
H        3.12789000      -1.05836000      -3.09923000
H        4.11108000       1.50548000      -0.05829000
H        2.66300000       2.08146000       0.77426000
H        2.70106000       1.42482000      -1.97274000
20
Properties=species:S:1:pos:R:3 energy=-1866.72 pbc="F F F"
C        0.93799000      -0.24078000       0.15826000
C        2.44383000      -0.03133000      -0.04879000
C        2.98180000      -1.16205000      -0.93385000
C        2.76108000       1.36415000      -0.64363000
N        2.26784000       2.46788000       0.21306000
C        4.27182000       1.59655000      -0.86777000
O        4.48981000       2.95826000      -1.24117000
H        0.53464000       0.45486000       0.89984000
H        0.73299000      -1.25217000       0.52436000
H        0.38760000      -0.10243000      -0.77805000
H        2.93068000      -0.11870000       0.93233000
H        2.58876000      -1.08757000      -1.95348000
H        2.69676000      -2.14054000      -0.53250000
H        4.07477000      -1.14481000      -0.98472000
H        2.25689000       1.47592000      -1.61206000
H        2.57486000       2.30942000       1.17434000
H        1.24869000       2.44290000       0.24122000
H        4.66210000       0.96707000      -1.67143000
H        4.84423000       1.40199000       0.04484000
H        3.78319000       3.44808000      -0.76802000
16
Properties=species:S:1:pos:R:3 energy=-1653.9 pbc="F F F"
C        0.37109000       1.57668000       0.53624000
C        1.40487000       0.55549000      -0.00499000
C        0.51804000      -0.39989000      -0.82238000
N       -0.46710000       0.56262000      -1.37284000
C       -0.94671000       1.04707000      -0.05562000
C       -1.27106000      -0.27213000       0.58824000
C       -0.37677000      -1.15555000       0.12008000
H        0.60393000       2.58024000       0.16179000
H        0.36550000       1.60330000       1.63124000
H        1.93734000       0.05076000       0.80835000
H        2.13764000       1.06518000      -0.64129000
H        1.02249000      -1.00783000      -1.57468000
H        0.01266000       1.31082000      -1.86821000
H       -1.77465000       1.75525000      -0.11037000
H       -2.04060000      -0.44963000       1.32152000
H       -0.27686000      -2.19190000       0.39823000
21
Properties=species:S:1:pos:R:3 energy=-2046.26 pbc="F F F"
C        2.24813000      -0.50682000      -1.45678000
C        2.41930000       0.01448000      -0.03917000
C        3.27250000       1.27505000      -0.03233000
C        2.62833000       2.57613000      -0.57708000
C        3.31861000       3.34420000       0.57783000
C        4.64981000       3.99774000       0.24230000
C        3.39408000       1.99641000       1.33529000
H        1.65176000      -1.42438000      -1.45562000
H        3.21823000      -0.72934000      -1.91326000
H        1.74098000       0.22877000      -2.08993000
H        2.89913000      -0.75861000       0.57133000
H        1.43376000       0.20804000       0.39911000
H        4.26154000       1.08489000      -0.47454000
H        1.53353000       2.59761000      -0.51553000
H        2.92550000       2.85898000      -1.59119000
H        2.65773000       4.07298000       1.06291000
H        5.33968000       3.30118000      -0.24570000
H        5.13328000       4.36922000       1.15197000
H        4.49982000       4.84963000      -0.42922000
H        4.31790000       1.80289000       1.88817000
H        2.54428000       1.83228000       2.00959000
18
Properties=species:S:1:pos:R:3 energy=-1700.41 pbc="F F F"
C        2.55763000      -0.47486000       1.52106000
C        2.41340000      -0.07906000       0.06294000
C        2.64815000       1.40823000      -0.10410000
C        1.48698000       2.34024000       0.14785000
N        3.85415000       1.80458000      -0.38357000
O        3.92701000       3.20362000      -0.44507000
C        5.27042000       3.56820000      -0.73782000
H        2.39941000      -1.55034000       1.64211000
H        1.83101000       0.05246000       2.14723000
H        3.55743000      -0.23100000       1.89576000
H        1.41385000      -0.33165000      -0.30537000
H        3.13986000      -0.62791000      -0.54662000
H        0.54469000       1.78635000       0.14667000
H        1.43585000       3.10386000      -0.63291000
H        1.61473000       2.81904000       1.12199000
H        5.33284000       4.65866000      -0.77308000
H        5.56851000       3.16548000      -1.71073000
H        5.94239000       3.20147000       0.04463000
17
Properties=species:S:1:pos:R:3 energy=-1655.11 pbc="F F F"
C       -1.50386000       0.79153000       0.18719000
C       -1.36314000      -0.69681000      -0.14656000
C       -0.01040000      -1.22815000       0.22402000
N        1.06557000      -1.13520000      -0.76873000
C        1.13176000      -0.25945000       0.40003000
C        0.87268000       1.21646000       0.29989000
N       -0.39048000       1.56756000      -0.35625000
H       -2.44186000       1.16173000      -0.24108000
H       -1.57015000       0.93610000       1.27260000
H       -1.54808000      -0.86121000      -1.21580000
H       -2.13443000      -1.25715000       0.39521000
H       -0.04382000      -2.13186000       0.81615000
H        1.71300000      -1.91804000      -0.67727000
H        1.91221000      -0.48806000       1.11532000
H        0.87589000       1.63845000       1.31285000
H        1.69811000       1.69120000      -0.24239000
H       -0.56435000       2.56221000      -0.23313000
17
Properties=species:S:1:pos:R:3 energy=-1603.13 pbc="F F F"
C       -1.64954000       0.60442000       0.28701000
N       -1.62307000      -0.82400000      -0.33190000
C       -0.21895000      -0.80053000       0.14745000
C        1.06493000      -1.08063000      -0.57083000
C        1.92203000       0.08636000       0.00790000
N        0.95365000       1.14314000       0.45035000
C       -0.23485000       0.70871000      -0.26866000
H       -2.39453000       1.26178000      -0.16997000
H       -1.76912000       0.61955000       1.37754000
H       -1.71636000      -0.82633000      -1.34911000
H       -0.14818000      -1.04436000       1.22069000
H        1.49103000      -2.05389000      -0.31051000
H        0.97836000      -1.01312000      -1.66228000
H        2.50910000      -0.24892000       0.86978000
H        2.60829000       0.47800000      -0.75057000
H        0.86209000       1.09644000       1.46631000
H       -0.21733000       0.95406000      -1.34383000
14
Properties=species:S:1:pos:R:3 energy=-1465.82 pbc="F F F"
C        0.98922000      -0.02856000       0.00043000
C        2.52000000       0.00000000       0.00000000
C        3.05238000      -0.73488000       1.23641000
C        2.99415000      -0.73622000      -1.23841000
O        3.13801000      -0.22904000      -2.34750000
C        3.00202000       1.36117000       0.00000000
N        3.38623000       2.44616000       0.00000000
H        0.57930000       0.48136000      -0.88088000
H        0.57795000       0.46856000       0.88754000
H        0.60883000      -1.05726000      -0.01615000
H        2.73810000      -0.24056000       2.16389000
H        4.14923000      -0.77080000       1.23749000
H        2.69490000      -1.77114000       1.27257000
H        3.12374000      -1.82726000      -1.12447000
16
Properties=species:S:1:pos:R:3 energy=-1600.25 pbc="F F F"
C        0.94701000      -0.03962000       0.04315000
C        2.47907000      -0.02760000      -0.03109000
C        2.93216000      -0.81722000      -1.26396000
C        3.02723000       1.41705000      -0.03588000
O        2.48619000       2.13531000       1.08305000
C        4.50700000       1.44699000       0.01108000
N        5.66510000       1.45471000       0.06986000
H        0.58914000       0.42826000       0.96587000
H        0.56548000      -1.06635000       0.02962000
H        0.50608000       0.49627000      -0.80428000
H        2.84835000      -0.54611000       0.86426000
H        2.60768000      -0.32742000      -2.18844000
H        2.51136000      -1.82858000      -1.25285000
H        4.02130000      -0.91978000      -1.29699000
H        2.68502000       1.93854000      -0.93706000
H        2.88735000       1.76667000       1.89035000
15
Properties=species:S:1:pos:R:3 energy=-1531.9 pbc="F F F"
C        1.83142000      -0.34340000       0.18013000
C        0.96768000      -1.53688000       0.63716000
C       -0.12874000      -1.08950000      -0.35404000
N       -1.39732000      -0.77197000       0.32088000
C       -1.30759000       0.48069000       0.63180000
N       -0.15935000       1.16134000       0.34422000
C        0.60090000       0.27898000      -0.49618000
H        2.61438000      -0.62583000      -0.53272000
H        2.28994000       0.23927000       0.98403000
H        1.40070000      -2.52134000       0.43467000
H        0.68499000      -1.49294000       1.69600000
H       -0.22091000      -1.67563000      -1.27151000
H       -2.10499000       1.06464000       1.11926000
H       -0.25619000       2.12603000       0.05202000
H        0.73109000       0.65988000      -1.51194000
20
Properties=species:S:1:pos:R:3 energy=-1868.72 pbc="F F F"
C        0.97963000      -0.43176000      -0.11025000
C        2.48436000      -0.65179000      -0.11153000
C        3.24339000       0.67751000      -0.06999000
C        4.75916000       0.47550000      -0.01550000
O        5.19616000      -0.21260000      -1.19075000
C        5.50611000       1.82038000       0.06737000
N        6.95661000       1.59214000      -0.00931000
H        0.45613000      -1.39226000      -0.15359000
H        0.66863000       0.16406000      -0.97468000
H        0.65979000       0.08816000       0.79880000
H        2.76010000      -1.21636000      -1.00893000
H        2.75806000      -1.26399000       0.75524000
H        2.92020000       1.25734000       0.80313000
H        2.98230000       1.25571000      -0.96536000
H        5.02282000      -0.14773000       0.84773000
H        6.14307000       0.02633000      -1.27523000
H        5.25610000       2.34820000       0.99361000
H        5.22395000       2.45580000      -0.77956000
H        7.26162000       1.08857000       0.82378000
H        7.43320000       2.49375000       0.02150000
16
Properties=species:S:1:pos:R:3 energy=-1550.5 pbc="F F F"
C        0.64929000       0.19140000       0.03296000
C        2.06381000      -0.31344000       0.01686000
C        2.35118000      -1.61731000       0.16269000
C        3.13520000       0.72814000      -0.18952000
O        3.17160000       1.58447000       0.95492000
N        4.15208000       2.57021000       0.75414000
C        4.36643000       3.16596000       1.87470000
H        0.51769000       0.95224000       0.80797000
H       -0.06973000      -0.61082000       0.23277000
H        0.39449000       0.63329000      -0.93645000
H        1.57182000      -2.35957000       0.30680000
H        3.37618000      -1.97806000       0.15061000
H        2.91703000       1.31750000      -1.08881000
H        4.12185000       0.26370000      -0.31355000
H        5.10613000       3.97983000       1.93295000
H        3.84580000       2.89557000       2.80925000
18
Properties=species:S:1:pos:R:3 energy=-1698.22 pbc="F F F"
C        0.83490000      -0.89915000      -0.29570000
C        2.36223000      -0.78024000      -0.22883000
C        2.89194000      -1.71423000       0.86528000
C        2.95459000      -1.13307000      -1.59802000
O        2.63036000       0.59522000       0.10170000
N        4.01153000       0.83116000       0.19646000
C        4.19609000       2.07283000       0.48781000
H        0.42305000      -0.21422000      -1.04607000
H        0.37989000      -0.61851000       0.66134000
H        0.51693000      -1.91701000      -0.54475000
H        2.51729000      -1.41189000       1.84987000
H        3.98563000      -1.68379000       0.92376000
H        2.59562000      -2.75286000       0.68332000
H        2.62030000      -0.42143000      -2.36168000
H        2.66580000      -2.14206000      -1.91152000
H        4.04928000      -1.08695000      -1.58544000
H        5.21822000       2.46276000       0.60778000
H        3.36687000       2.78694000       0.62729000
17
Properties=species:S:1:pos:R:3 energy=-1611.5 pbc="F F F"
C        1.04259000      -0.43576000       0.29051000
C        2.40361000      -0.06115000      -0.29259000
C        2.79813000      -1.04630000      -1.39111000
C        2.38808000       1.36994000      -0.82427000
O        2.53855000       1.66327000      -2.00746000
N        2.19623000       2.32906000       0.16497000
N        2.24110000       3.69664000      -0.18052000
H        0.78137000       0.20367000       1.14001000
H        1.04084000      -1.47216000       0.64408000
H        0.24944000      -0.32758000      -0.45763000
H        3.16111000      -0.11180000       0.49965000
H        2.07482000      -1.03820000      -2.21413000
H        2.85469000      -2.06677000      -0.99805000
H        3.77840000      -0.79195000      -1.80879000
H        2.22464000       2.07260000       1.14945000
H        1.32936000       3.93900000      -0.58168000
H        2.87470000       3.77810000      -0.98803000
17
Properties=species:S:1:pos:R:3 energy=-1585.54 pbc="F F F"
C        1.18134000      -0.15356000       0.11950000
C        2.53403000       0.48624000      -0.07971000
C        3.73318000      -0.44670000      -0.16123000
C        4.01255000      -0.78940000      -1.61751000
O        4.69241000       0.27688000      -2.27146000
N        2.57488000       1.77955000      -0.23250000
N        3.78811000       2.33687000      -0.42718000
H        0.39713000       0.60773000       0.16686000
H        1.18251000      -0.72323000       1.05214000
H        0.97347000      -0.82734000      -0.71503000
H        3.48917000      -1.35970000       0.39328000
H        4.60391000       0.01143000       0.31602000
H        3.09346000      -1.00227000      -2.17347000
H        4.65868000      -1.67038000      -1.67853000
H        4.29881000       1.11110000      -1.93180000
H        3.66262000       3.31091000      -0.72305000
H        4.28473000       2.42119000       0.46598000
16
Properties=species:S:1:pos:R:3 energy=-1508.09 pbc="F F F"
C        2.09727000      -0.35476000       1.43214000
C        2.28185000       0.14482000       0.01138000
C        2.97935000       1.48750000       0.01297000
C        2.12335000       2.73165000       0.21916000
O        2.22812000       3.59631000      -0.89985000
N        4.27319000       1.51095000      -0.13188000
O        4.77779000       2.81591000      -0.09157000
H        1.59982000      -1.33004000       1.43328000
H        1.48944000       0.34076000       2.02108000
H        3.06253000      -0.46199000       1.93898000
H        1.31367000       0.24185000      -0.48926000
H        2.88163000      -0.57141000      -0.56036000
H        2.45294000       3.26049000       1.11944000
H        1.07325000       2.45588000       0.34455000
H        3.18995000       3.72511000      -1.02024000
H        5.74121000       2.66655000      -0.16208000
20
Properties=species:S:1:pos:R:3 energy=-1860.52 pbc="F F F"
C        1.39850000      -0.88915000       1.83660000
C        2.90018000      -0.74704000       1.64074000
C        3.22288000       0.16265000       0.45482000
N        4.67540000       0.28938000       0.30905000
C        5.00884000       1.19009000      -0.80798000
C        6.53303000       1.29317000      -0.94365000
O        7.09496000      -0.00912000      -1.07648000
H        1.18739000      -1.54290000       2.68871000
H        0.92594000      -1.32339000       0.94960000
H        0.93491000       0.08315000       2.03193000
H        3.33664000      -1.74048000       1.48213000
H        3.34147000      -0.34150000       2.55925000
H        2.77143000       1.14893000       0.61699000
H        2.79119000      -0.26348000      -0.45868000
H        5.06553000       0.66822000       1.17416000
H        4.58424000       2.18816000      -0.65173000
H        4.60086000       0.77262000      -1.73556000
H        6.97421000       1.76807000      -0.06070000
H        6.80467000       1.88139000      -1.82581000
H        6.51749000      -0.58626000      -0.53576000
20
Properties=species:S:1:pos:R:3 energy=-1869.5 pbc="F F F"
C        1.01608000      -0.22736000      -0.07684000
C        2.54991000      -0.23333000       0.03402000
C        2.96296000      -1.08076000       1.24562000
N        3.10756000      -0.85828000      -1.17796000
C        3.05613000       1.22649000       0.15724000
C        4.57400000       1.39342000       0.25869000
O        5.22473000       0.92699000      -0.91408000
H        0.67887000       0.34857000      -0.94650000
H        0.56102000       0.22098000       0.81385000
H        0.61615000      -1.24335000      -0.17581000
H        2.61924000      -0.62203000       2.17961000
H        4.04962000      -1.20118000       1.31234000
H        2.53078000      -2.08736000       1.19407000
H        2.73404000      -0.38269000      -2.00407000
H        2.76882000      -1.82022000      -1.25010000
H        2.59909000       1.69433000       1.03858000
H        2.70910000       1.79385000      -0.71736000
H        4.98522000       0.86472000       1.12333000
H        4.82198000       2.45369000       0.37544000
H        4.78364000       0.07899000      -1.14413000
14
Properties=species:S:1:pos:R:3 energy=-1474.78 pbc="F F F"
C        1.01415000      -0.20490000      -0.10700000
C        2.52070000      -0.01514000       0.01518000
C        3.23828000      -0.77618000      -1.01247000
N        3.79722000      -1.36975000      -1.83804000
C        2.86142000       1.46157000      -0.05305000
C        2.95497000       2.13291000      -1.40258000
O        2.99522000       2.12085000       0.98162000
H        0.48417000       0.37675000       0.65532000
H        0.74038000      -1.25837000       0.01896000
H        0.64149000       0.11834000      -1.08576000
H        2.84324000      -0.37575000       0.99999000
H        2.06362000       1.91479000      -1.99530000
H        3.85344000       1.79933000      -1.92675000
H        3.01695000       3.21652000      -1.26440000
20
Properties=species:S:1:pos:R:3 energy=-1862.12 pbc="F F F"
C        1.23195000      -0.11020000       0.73920000
C        2.40953000      -0.13472000      -0.24283000
C        2.27688000      -1.28963000      -1.25442000
N        1.14270000      -1.13477000      -2.16092000
C        2.56227000       1.25251000      -0.90455000
C        3.77590000       1.37940000      -1.82017000
O        4.97407000       1.10551000      -1.10540000
H        1.41065000       0.62250000       1.53358000
H        1.10010000      -1.08800000       1.21403000
H        0.29370000       0.15962000       0.24396000
H        3.31215000      -0.33180000       0.35103000
H        2.17137000      -2.23835000      -0.71505000
H        3.19291000      -1.37404000      -1.84833000
H        0.27297000      -1.18132000      -1.63188000
H        1.11995000      -1.92702000      -2.80248000
H        2.65652000       2.00023000      -0.10611000
H        1.65849000       1.50838000      -1.47027000
H        3.84283000       2.39600000      -2.22125000
H        3.71691000       0.69519000      -2.67077000
H        5.03988000       1.76202000      -0.39096000
20
Properties=species:S:1:pos:R:3 energy=-1868.38 pbc="F F F"
C        0.45450000       0.93224000      -0.43874000
C        1.64297000       0.53780000       0.42848000
C        2.83870000       1.50132000       0.31706000
N        2.48968000       2.84921000       0.78827000
C        4.03650000       0.95341000       1.12174000
C        5.30030000       1.80163000       0.98191000
O        5.13313000       3.07495000       1.59224000
H       -0.32387000       0.16424000      -0.37854000
H        0.75015000       1.03258000      -1.48769000
H        0.01046000       1.87698000      -0.11069000
H        1.96429000      -0.46710000       0.12715000
H        1.31375000       0.46032000       1.47245000
H        3.13671000       1.57712000      -0.73610000
H        2.05847000       2.77902000       1.71262000
H        1.76381000       3.24118000       0.18410000
H        4.26426000      -0.06227000       0.77650000
H        3.76238000       0.88521000       2.18227000
H        5.56339000       1.95018000      -0.06964000
H        6.14114000       1.30573000       1.47582000
H        4.24759000       3.38885000       1.30014000
16
Properties=species:S:1:pos:R:3 energy=-1632.12 pbc="F F F"
C       -1.00480000      -0.01656000       1.05808000
C       -0.54295000      -1.07334000       0.00397000
C       -1.05491000       0.00791000      -1.00099000
N       -0.67973000       1.04135000       0.03246000
C        0.79927000       1.23550000      -0.00123000
C        1.59923000      -0.05208000      -0.03601000
C        0.94334000      -1.22345000      -0.03396000
H       -0.44768000       0.03638000       2.00046000
H       -2.07342000      -0.06543000       1.30737000
H       -1.07504000      -2.02746000       0.00559000
H       -2.13442000      -0.03563000      -1.19911000
H       -0.54425000       0.08355000      -1.96782000
H        1.05341000       1.83639000      -0.88222000
H        1.09630000       1.81546000       0.88035000
H        2.68177000      -0.00220000      -0.06170000
H        1.42573000      -2.19164000      -0.05723000
18
Properties=species:S:1:pos:R:3 energy=-1747.92 pbc="F F F"
C       -1.53946000       0.77727000      -0.03178000
C       -1.54090000      -0.77611000       0.05101000
C       -0.20121000      -1.38386000       0.55327000
C        0.86735000      -0.74226000      -0.24471000
N        2.07119000       0.00239000      -0.03382000
C        0.86836000       0.72459000       0.22755000
C       -0.20506000       1.37954000      -0.55284000
H       -2.37273000       1.11885000      -0.65575000
H       -1.72147000       1.16487000       0.97938000
H       -1.73860000      -1.16316000      -0.95729000
H       -2.36631000      -1.11497000       0.68687000
H       -0.08197000      -1.21483000       1.63029000
H       -0.20530000      -2.46698000       0.39060000
H        0.73708000      -0.98803000      -1.29662000
H        2.54163000      -0.29411000       0.82253000
H        0.76335000       0.98054000       1.27963000
H       -0.19876000       2.46192000      -0.38659000
H       -0.10360000       1.21177000      -1.63163000
17
Properties=species:S:1:pos:R:3 energy=-1795.0 pbc="F F F"
C        0.56516000       1.22339000       0.66962000
C       -0.85007000       0.75138000       0.42762000
C       -0.86057000      -0.01171000      -0.85488000
C        0.54903000      -0.01917000      -1.40436000
C        1.25881000       0.00041000      -0.01112000
C        0.56559000      -1.20354000       0.70359000
C       -0.84944000      -0.73931000       0.44873000
H        0.78025000       2.16765000       0.16036000
H        0.79836000       1.29716000       1.73592000
H       -1.67777000       1.34519000       0.76423000
H       -1.69798000      -0.02137000      -1.52550000
H        0.76572000      -0.92729000      -1.97424000
H        0.76533000       0.87256000      -1.99930000
H        2.34859000       0.00046000      -0.02092000
H        0.79891000      -1.24735000       1.77132000
H        0.78109000      -2.16131000       0.22098000
H       -1.67734000      -1.32330000       0.80139000
17
Properties=species:S:1:pos:R:3 energy=-1584.46 pbc="F F F"
C        2.46972000      -1.20476000       1.44692000
C        1.89921000      -0.29903000       0.36985000
C        2.56558000       1.06513000       0.41997000
N        2.11319000       2.03218000       1.28920000
C        0.76178000       2.13942000       1.77133000
N        3.58617000       1.25106000      -0.36785000
O        4.10560000       2.54889000      -0.21816000
H        2.00243000      -2.19284000       1.40071000
H        2.29700000      -0.78928000       2.44447000
H        3.54986000      -1.33012000       1.32132000
H        0.81667000      -0.19804000       0.49105000
H        2.07397000      -0.74455000      -0.61679000
H        2.58232000       2.91559000       1.10110000
H        0.48559000       1.26566000       2.36861000
H        0.05909000       2.24334000       0.93886000
H        0.66675000       3.02299000       2.40993000
H        4.87683000       2.52499000      -0.81401000
16
Properties=species:S:1:pos:R:3 energy=-1564.18 pbc="F F F"
C        0.88489000      -0.06059000       0.04550000
C        2.40920000       0.02848000      -0.01058000
C        3.05686000      -0.76794000       1.12220000
N        2.89793000      -0.50226000      -1.32335000
C        2.85981000       1.50280000       0.10893000
O        3.80804000       1.79682000      -0.82132000
O        2.45385000       2.30822000       0.93095000
H        0.42004000       0.55108000      -0.73667000
H        0.50371000       0.30379000       1.00646000
H        0.53904000      -1.09288000      -0.08029000
H        2.74394000      -0.38488000       2.10050000
H        4.15050000      -0.69775000       1.08530000
H        2.78403000      -1.82838000       1.07595000
H        2.24313000      -0.20164000      -2.05456000
H        2.79973000      -1.52199000      -1.30942000
H        3.94288000       0.96108000      -1.33526000
17
Properties=species:S:1:pos:R:3 energy=-1604.42 pbc="F F F"
C        0.94896000      -0.17741000       0.11676000
C        2.44820000       0.02921000      -0.10356000
C        2.98765000      -0.94254000      -1.15346000
N        2.74640000       1.43099000      -0.42526000
N        2.46119000       1.90137000      -1.73758000
C        2.92335000       2.38633000       0.57135000
O        2.96928000       3.59784000       0.38579000
H        0.57404000       0.48781000       0.90243000
H        0.73802000      -1.20876000       0.41887000
H        0.37797000       0.03305000      -0.79446000
H        2.95329000      -0.19317000       0.84491000
H        2.48349000      -0.82143000      -2.11855000
H        2.84365000      -1.97917000      -0.83014000
H        4.05982000      -0.78436000      -1.31361000
H        3.35331000       2.20227000      -2.14086000
H        1.94572000       2.78399000      -1.62824000
H        3.03694000       1.94011000       1.57259000
18
Properties=species:S:1:pos:R:3 energy=-1787.38 pbc="F F F"
C        0.82353000      -1.19305000       0.51617000
C       -0.43213000      -1.52006000      -0.30665000
C       -1.55942000      -0.52901000      -0.19990000
C       -1.46144000       0.76225000       0.15001000
C       -0.18797000       1.53112000       0.38614000
C        1.00672000       1.06760000      -0.46142000
N        1.69476000      -0.14713000      -0.01911000
H        1.42820000      -2.10496000       0.59363000
H        0.54597000      -0.94268000       1.54761000
H       -0.81637000      -2.48037000       0.06207000
H       -0.17759000      -1.67578000      -1.36167000
H       -2.55248000      -0.93213000      -0.39304000
H       -2.37976000       1.34162000       0.24075000
H        0.05600000       1.53345000       1.45494000
H       -0.38939000       2.57617000       0.11657000
H        1.75369000       1.87025000      -0.46621000
H        0.69070000       0.94514000      -1.50572000
H        2.22886000      -0.51768000      -0.80455000
18
Properties=species:S:1:pos:R:3 energy=-1717.64 pbc="F F F"
C        2.11469000      -0.72078000       0.56758000
C        2.11207000      -1.13664000      -0.90172000
C        2.62242000      -2.58828000      -1.03410000
N        2.73616000      -2.99789000      -2.43955000
O        0.76368000      -1.10968000      -1.40066000
C        0.25225000       0.05331000      -1.89598000
C        0.81985000       1.25902000      -2.00142000
H        1.75099000       0.30466000       0.68776000
H        3.12109000      -0.77930000       0.99388000
H        1.44707000      -1.36040000       1.15598000
H        2.77300000      -0.48818000      -1.48907000
H        1.92603000      -3.27269000      -0.53532000
H        3.60441000      -2.69283000      -0.56080000
H        1.84840000      -2.78477000      -2.90069000
H        2.84654000      -4.00947000      -2.48696000
H       -0.76604000      -0.12303000      -2.22889000
H        1.83050000       1.47375000      -1.67946000
H        0.25849000       2.08419000      -2.43023000
12
Properties=species:S:1:pos:R:3 energy=-1285.86 pbc="F F F"
C        1.00000000       0.00000000       0.00000000
C        2.19016000       0.00000000       0.00000000
C        3.63416000       0.00000000       0.00000000
O        4.17054000       0.79571000       1.06358000
C        3.83938000       2.19268000       0.99494000
C        4.39216000       2.87487000      -0.18665000
N        4.80849000       3.41166000      -1.12754000
H       -0.06609000      -0.00596000      -0.00067000
H        4.04171000       0.33582000      -0.95919000
H        4.00580000      -1.01835000       0.15541000
H        4.25857000       2.65189000       1.89673000
H        2.75357000       2.32815000       1.05959000
20
Properties=species:S:1:pos:R:3 energy=-1871.12 pbc="F F F"
C        0.88588000      -0.70716000       0.01719000
C        2.38363000      -0.42236000       0.14104000
C        2.97486000      -1.25390000       1.28260000
O        3.01934000      -0.86173000      -1.06159000
C        2.68585000       1.07491000       0.37784000
C        2.17248000       2.03501000      -0.70229000
N        2.74222000       1.73477000      -2.01578000
H        0.45871000      -0.23521000      -0.87383000
H        0.33610000      -0.35908000       0.89764000
H        0.70439000      -1.78217000      -0.09928000
H        2.53205000      -0.98787000       2.24793000
H        4.05990000      -1.11151000       1.34681000
H        2.81555000      -2.32478000       1.11073000
H        2.84963000      -0.16058000      -1.72981000
H        3.77352000       1.20922000       0.45726000
H        2.25894000       1.38390000       1.34056000
H        2.43881000       3.06155000      -0.42650000
H        1.08062000       1.99492000      -0.76383000
H        3.75274000       1.89328000      -1.98254000
H        2.38717000       2.41322000      -2.69255000
15
Properties=species:S:1:pos:R:3 energy=-1438.88 pbc="F F F"
C        0.81236000      -0.08735000      -0.04967000
C        2.27384000      -0.38121000       0.09961000
C        2.80754000      -1.58405000      -0.16306000
O        3.01100000       0.69610000       0.63837000
C        4.23858000       0.95395000       0.12965000
N        4.98945000       1.85642000       0.67077000
N        6.19470000       1.98800000       0.05675000
H        0.66100000       0.71559000      -0.77738000
H        0.39116000       0.23093000       0.90984000
H        0.24925000      -0.96266000      -0.38912000
H        2.19498000      -2.39816000      -0.53922000
H        3.85478000      -1.80240000       0.01197000
H        4.51361000       0.35428000      -0.75313000
H        6.57731000       2.90985000       0.28908000
H        6.86706000       1.33936000       0.47690000
17
Properties=species:S:1:pos:R:3 energy=-1584.95 pbc="F F F"
C        1.03521000       0.07082000       0.03323000
C        2.55839000      -0.01742000       0.06251000
C        3.04161000      -0.87232000       1.22950000
O        3.01036000      -0.63905000      -1.14211000
C        3.16110000       1.38169000       0.14090000
N        3.06023000       2.10899000       1.21031000
N        3.64054000       3.32514000       1.08337000
H        0.69578000       0.69357000      -0.80333000
H        0.63450000       0.50415000       0.95610000
H        0.58863000      -0.91974000      -0.11085000
H        2.69839000      -0.48223000       2.19356000
H        4.13710000      -0.91374000       1.25360000
H        2.69065000      -1.90588000       1.12890000
H        2.53911000      -0.23078000      -1.88891000
H        3.65800000       1.75755000      -0.77483000
H        3.44316000       3.88158000       1.91936000
H        4.66089000       3.24454000       1.05666000
17
Properties=species:S:1:pos:R:3 energy=-1618.81 pbc="F F F"
C        0.83990000      -0.04491000       0.16151000
C        2.35625000       0.06203000       0.04290000
C        3.06310000      -0.79859000       1.08661000
O        2.72294000      -0.41312000      -1.25869000
C        2.79488000       1.54265000       0.15847000
N        3.34082000       2.14700000      -0.93710000
N        2.65376000       2.24375000       1.23710000
H        0.34728000       0.57518000      -0.59604000
H        0.48357000       0.27839000       1.14462000
H        0.50600000      -1.07427000      -0.00913000
H        2.77114000      -0.52904000       2.10635000
H        4.15073000      -0.68830000       1.00858000
H        2.84223000      -1.86033000       0.93079000
H        3.69270000      -0.32365000      -1.31358000
H        2.98063000       1.80287000      -1.82296000
H        3.32112000       3.15830000      -0.85714000
H        2.22873000       1.68763000       1.98530000
17
Properties=species:S:1:pos:R:3 energy=-1614.61 pbc="F F F"
C        3.36647000      -1.92666000      -0.07604000
C        3.14170000      -0.64419000       0.70819000
C        3.80300000       0.58955000       0.08951000
O        3.37036000       1.74662000       0.81353000
C        5.34082000       0.53211000       0.15126000
N        5.99333000       1.23567000       1.12415000
N        6.05061000      -0.13861000      -0.69644000
H        2.75769000      -2.73410000       0.34354000
H        4.41124000      -2.24656000      -0.02714000
H        3.08722000      -1.80252000      -1.12674000
H        3.49375000      -0.78490000       1.73789000
H        2.06202000      -0.46224000       0.78524000
H        3.49763000       0.71673000      -0.95420000
H        3.51195000       1.54656000       1.75665000
H        5.57955000       2.14706000       1.29887000
H        6.98324000       1.30613000       0.90518000
H        5.44913000      -0.60463000      -1.38434000
17
Properties=species:S:1:pos:R:3 energy=-1585.07 pbc="F F F"
C        2.03860000      -0.31471000       1.80900000
C        1.70545000       0.78900000       0.82125000
C        2.92476000       1.62400000       0.52553000
O        3.20808000       2.70033000       1.29466000
C        2.27281000       3.19778000       2.25920000
N        3.72868000       1.25742000      -0.43047000
N        4.79609000       2.06611000      -0.64505000
H        1.14779000      -0.91147000       2.02830000
H        2.42006000       0.09186000       2.75083000
H        2.80545000      -0.98388000       1.40410000
H        0.87618000       1.40024000       1.18339000
H        1.36206000       0.34074000      -0.11901000
H        2.71976000       4.07591000       2.73384000
H        2.08077000       2.45149000       3.03404000
H        1.34790000       3.51056000       1.76662000
H        5.60217000       1.52763000      -0.95986000
H        5.05704000       2.59303000       0.19163000
16
Properties=species:S:1:pos:R:3 energy=-1564.68 pbc="F F F"
C        0.81032000      -0.23718000       0.17858000
C        2.28630000       0.05221000      -0.08399000
C        3.16219000      -0.63416000       0.96276000
O        2.64520000      -0.48493000      -1.36416000
C        2.56385000       1.57303000      -0.07977000
N        3.79115000       1.92534000      -0.57380000
O        1.78430000       2.42443000       0.33146000
H        0.17771000       0.25341000      -0.57042000
H        0.49748000       0.11608000       1.16691000
H        0.60316000      -1.31087000       0.10839000
H        2.97208000      -0.23970000       1.96678000
H        4.22748000      -0.49900000       0.74258000
H        2.98435000      -1.71567000       0.97236000
H        2.01482000      -0.11858000      -2.01030000
H        4.33257000       1.24903000      -1.09882000
H        4.00334000       2.90885000      -0.66640000
16
Properties=species:S:1:pos:R:3 energy=-1573.35 pbc="F F F"
C        0.71071000      -1.01396000      -0.30416000
C        2.03918000      -0.32351000      -0.01524000
C        3.13184000      -0.85027000      -0.93753000
O        1.91249000       1.08807000      -0.26792000
C        1.40875000       1.82542000       0.74572000
N        1.33331000       3.12181000       0.37356000
O        1.06001000       1.41928000       1.84162000
H       -0.07687000      -0.63721000       0.35655000
H        0.78837000      -2.09643000      -0.16425000
H        0.38113000      -0.81453000      -1.32984000
H        2.34534000      -0.50305000       1.02276000
H        2.88761000      -0.65760000      -1.98814000
H        3.28219000      -1.92579000      -0.80307000
H        4.07893000      -0.33800000      -0.73624000
H        1.62241000       3.39594000      -0.55183000
H        0.96279000       3.79729000       1.02387000
20
Properties=species:S:1:pos:R:3 energy=-1853.35 pbc="F F F"
C        0.88472000      -0.41264000       0.08749000
C        2.33563000      -0.02960000      -0.21470000
C        2.90769000      -0.93947000      -1.32665000
O        4.24362000      -0.54419000      -1.63958000
N        2.57968000       1.40451000      -0.53373000
C        1.80779000       1.90644000      -1.67305000
C        2.36165000       2.26475000       0.63369000
H        0.48097000       0.16442000       0.92569000
H        0.82359000      -1.47046000       0.36680000
H        0.23247000      -0.26522000      -0.77862000
H        2.93378000      -0.25175000       0.67984000
H        2.31185000      -0.89046000      -2.24421000
H        2.93367000      -1.98344000      -0.99793000
H        4.25234000       0.42451000      -1.49275000
H        2.01603000       1.33344000      -2.58101000
H        2.09761000       2.93940000      -1.89703000
H        0.72927000       1.89391000      -1.49032000
H        2.94980000       1.91854000       1.48915000
H        1.30890000       2.30997000       0.93044000
H        2.69632000       3.28515000       0.41907000
16
Properties=species:S:1:pos:R:3 energy=-1615.83 pbc="F F F"
C        0.97389000       0.10998000       0.52548000
C        2.40945000      -0.30478000       0.25662000
C        3.31277000       0.88148000      -0.02692000
O        2.91929000       2.04382000      -0.03495000
N        4.62171000       0.49494000      -0.27263000
C        5.62769000       1.38065000      -0.55407000
C        6.87976000       0.98114000      -0.78685000
H        0.35414000      -0.76935000       0.72568000
H        0.54997000       0.63898000      -0.33446000
H        0.91296000       0.77627000       1.39230000
H        2.43906000      -0.97851000      -0.60706000
H        2.80346000      -0.84137000       1.12699000
H        4.84624000      -0.49229000      -0.24273000
H        5.35734000       2.43577000      -0.57959000
H        7.17439000      -0.06196000      -0.76737000
H        7.65231000       1.71194000      -1.00694000
17
Properties=species:S:1:pos:R:3 energy=-1571.43 pbc="F F F"
C       -0.96187000      -1.20160000       0.52013000
C        0.08634000      -2.09376000      -0.13325000
C       -0.03418000      -3.52481000       0.37848000
O       -0.14917000      -2.05075000      -1.54846000
N        1.03676000      -2.43294000      -2.19227000
C        0.80783000      -3.06022000      -3.38526000
N       -0.28491000      -3.62317000      -3.76645000
H       -0.88195000      -0.17718000       0.13861000
H       -0.84481000      -1.17782000       1.60830000
H       -1.97526000      -1.54578000       0.28311000
H        1.07996000      -1.68947000       0.09912000
H       -1.01304000      -3.95104000       0.12800000
H        0.10047000      -3.56932000       1.46376000
H        0.71813000      -4.17141000      -0.08643000
H        1.74098000      -1.69804000      -2.22182000
H        1.69331000      -3.06515000      -4.04180000
H       -0.95590000      -3.48339000      -3.00018000
17
Properties=species:S:1:pos:R:3 energy=-1605.15 pbc="F F F"
C        1.47355000      -0.30895000       0.35369000
C        2.96895000      -0.19192000       0.10841000
C        3.41231000       1.24952000      -0.07048000
O        2.62122000       2.19455000      -0.04738000
N        4.78235000       1.44777000      -0.26925000
C        5.80493000       0.41544000      -0.17693000
N        5.24466000       2.79177000      -0.35033000
H        1.18716000      -1.35924000       0.47173000
H        0.90300000       0.10857000      -0.48291000
H        1.18044000       0.22942000       1.26162000
H        3.22423000      -0.75294000      -0.79646000
H        3.50361000      -0.62683000       0.95935000
H        5.51592000      -0.44520000      -0.78470000
H        5.89473000       0.10355000       0.86721000
H        6.76630000       0.79617000      -0.53457000
H        4.64354000       3.34084000       0.27807000
H        4.97610000       3.13599000      -1.27707000
15
Properties=species:S:1:pos:R:3 energy=-1511.47 pbc="F F F"
C       -1.53329000       0.58815000       0.17468000
C       -1.32103000      -0.80374000      -0.39608000
C       -0.27734000      -1.42503000       0.47238000
N        0.95913000      -1.05163000       0.54705000
N        1.46926000      -0.15788000      -0.38336000
C        0.89569000       0.97427000      -0.65387000
C       -0.41457000       1.55197000      -0.19045000
H       -2.48876000       0.99451000      -0.17813000
H       -1.61210000       0.54088000       1.26970000
H       -1.01444000      -0.79229000      -1.44588000
H       -2.23596000      -1.39874000      -0.30846000
H       -0.62172000      -2.19620000       1.18066000
H        1.47556000       1.63712000      -1.32093000
H       -0.22007000       2.26210000       0.62035000
H       -0.76778000       2.15871000      -1.03679000
14
Properties=species:S:1:pos:R:3 energy=-1438.99 pbc="F F F"
C        1.11801000      -0.81247000       0.69887000
C        2.35110000      -0.03799000       0.26943000
C        2.05268000       1.42508000       0.00523000
O        0.94713000       1.93158000       0.15488000
N        3.16378000       2.12273000      -0.41327000
C        3.15253000       3.45016000      -0.73310000
O        4.15173000       4.03896000      -1.12633000
H        1.37001000      -1.86236000       0.87828000
H        0.34156000      -0.77375000      -0.07233000
H        0.69536000      -0.39970000       1.62098000
H        2.76009000      -0.48158000      -0.64536000
H        3.11399000      -0.10065000       1.05407000
H        4.05376000       1.65910000      -0.52640000
H        2.17374000       3.94304000      -0.61059000
17
Properties=species:S:1:pos:R:3 energy=-1577.79 pbc="F F F"
C        0.94307000      -0.06823000      -0.12681000
C        2.46786000      -0.06767000      -0.20596000
C        2.93826000      -0.85485000      -1.44406000
O        4.36214000      -0.93594000      -1.47617000
N        2.95130000       1.33067000      -0.24963000
N        4.29522000       1.51469000      -0.20747000
C        4.64689000       2.75923000      -0.22341000
H        0.59427000       0.46162000       0.76655000
H        0.55949000      -1.09286000      -0.07381000
H        0.49523000       0.41407000      -1.00308000
H        2.87256000      -0.53966000       0.69804000
H        2.60166000      -0.37908000      -2.37183000
H        2.54832000      -1.87760000      -1.42512000
H        4.65103000      -0.05684000      -1.13925000
H        2.47506000       1.86380000       0.48376000
H        5.71622000       3.02057000      -0.19032000
H        3.93114000       3.59798000      -0.27646000
17
Properties=species:S:1:pos:R:3 energy=-1619.37 pbc="F F F"
C        0.61683000       0.34310000      -0.77138000
C        0.03307000       1.26575000       0.26568000
N        0.17147000      -0.16518000       0.52164000
C        1.28743000      -0.47502000       1.42537000
C        0.74983000      -0.71513000       2.85391000
N        1.60874000      -1.93090000       2.92662000
C        1.53796000      -1.99880000       1.43870000
H       -0.00159000       0.07461000      -1.61983000
H        1.68009000       0.39304000      -0.97313000
H       -0.97944000       1.61948000       0.11901000
H        0.69245000       1.95160000       0.78138000
H        2.19410000       0.14139000       1.37146000
H       -0.31958000      -0.94431000       2.94267000
H        0.99964000       0.05908000       3.58568000
H        2.54818000      -1.73650000       3.27305000
H        2.46414000      -2.32707000       0.95705000
H        0.71736000      -2.63389000       1.08145000
18
Properties=species:S:1:pos:R:3 energy=-1703.79 pbc="F F F"
C        0.87710000      -0.33307000       0.42434000
C        2.21505000      -0.35474000      -0.29879000
N        3.23883000       0.27997000       0.53094000
C        4.52860000       0.28141000      -0.18397000
C        5.60323000       0.91643000       0.70991000
O        6.29438000      -0.34779000       0.86524000
C        5.30050000      -1.02307000       0.05850000
H        0.10566000      -0.79836000      -0.19759000
H        0.56123000       0.69265000       0.64223000
H        0.92698000      -0.88562000       1.36855000
H        2.11177000       0.18078000      -1.24976000
H        2.48443000      -1.39354000      -0.52232000
H        3.26854000      -0.16539000       1.44968000
H        4.51673000       0.65266000      -1.21296000
H        5.28584000       1.31417000       1.67937000
H        6.23906000       1.65356000       0.20947000
H        5.75063000      -1.46119000      -0.83772000
H        4.79843000      -1.80997000       0.63041000
16
Properties=species:S:1:pos:R:3 energy=-1606.54 pbc="F F F"
C        2.47223000      -0.33256000       1.72359000
C        2.20766000       0.31481000       0.37205000
N        3.02101000       1.51392000       0.16620000
C        2.62168000       2.76932000       0.59843000
C        1.48630000       3.06352000       1.24043000
C        4.26498000       1.34258000      -0.44010000
O        4.74603000       0.28290000      -0.82607000
H        1.86450000      -1.23559000       1.83705000
H        2.22889000       0.34764000       2.54584000
H        3.52544000      -0.61451000       1.82496000
H        1.14585000       0.55546000       0.25380000
H        2.43830000      -0.41278000      -0.41554000
H        3.31502000       3.58318000       0.38913000
H        0.73686000       2.32731000       1.50354000
H        1.27944000       4.08889000       1.53323000
H        4.82138000       2.28870000      -0.55122000
20
Properties=species:S:1:pos:R:3 energy=-1853.29 pbc="F F F"
C        0.97002000      -0.27822000       0.20802000
C        2.46110000      -0.13305000       0.50039000
N        2.99228000       1.22032000       0.24020000
C        2.32787000       2.22504000       1.08071000
C        4.45618000       1.27507000       0.49428000
C        5.27024000       0.50544000      -0.55664000
O        4.86813000       0.90009000      -1.86723000
H        0.68186000      -1.33314000       0.26172000
H        0.72442000       0.08603000      -0.79461000
H        0.35778000       0.26222000       0.93734000
H        2.97117000      -0.85327000      -0.14894000
H        2.65718000      -0.43809000       1.53590000
H        1.26588000       2.31348000       0.82877000
H        2.75445000       3.21928000       0.90669000
H        2.41885000       1.99404000       2.14797000
H        4.70517000       0.92393000       1.50264000
H        4.77520000       2.32338000       0.42330000
H        5.13780000      -0.57665000      -0.46499000
H        6.33743000       0.72305000      -0.44624000
H        3.91005000       1.08830000      -1.78635000
18
Properties=species:S:1:pos:R:3 energy=-1746.49 pbc="F F F"
C        1.66950000      -0.18560000       1.09100000
C        2.09784000       0.28180000      -0.29062000
N        2.86288000       1.52190000      -0.23032000
C        2.15383000       2.79494000      -0.23961000
C        1.86321000       3.26768000      -1.65430000
C        4.24048000       1.47603000      -0.13542000
O        4.92281000       0.46091000      -0.08584000
H        1.11151000      -1.12408000       1.01871000
H        1.02824000       0.55619000       1.57768000
H        2.53772000      -0.35124000       1.73703000
H        1.22438000       0.43485000      -0.93283000
H        2.71298000      -0.49735000      -0.75570000
H        2.76987000       3.54691000       0.26637000
H        1.22604000       2.68969000       0.33162000
H        2.78777000       3.37149000      -2.23177000
H        1.35962000       4.23912000      -1.63459000
H        1.21727000       2.55962000      -2.18344000
H        4.69991000       2.47815000      -0.10858000
14
Properties=species:S:1:pos:R:3 energy=-1427.51 pbc="F F F"
C        1.02775000      -0.06182000       0.05594000
C        2.53308000      -0.11578000      -0.04746000
N        3.10720000      -1.38351000      -0.12923000
C        3.24591000       1.02575000      -0.04013000
C        4.71927000       1.12924000      -0.05060000
O        5.35293000      -0.01762000       0.26594000
O        5.29440000       2.17817000      -0.28955000
H        0.65093000       0.96455000       0.11819000
H        0.69046000      -0.59638000       0.95028000
H        0.57233000      -0.53180000      -0.82212000
H        2.39478000      -2.11613000      -0.05264000
H        3.54416000      -1.50948000      -1.05166000
H        2.75551000       1.99400000      -0.00891000
H        4.69454000      -0.72762000       0.45952000
16
Properties=species:S:1:pos:R:3 energy=-1565.9 pbc="F F F"
C        1.80696000      -0.66751000       0.35524000
C        1.94494000       0.19282000      -0.89789000
N        0.80277000      -0.05062000      -1.80354000
C        2.01247000       1.68109000      -0.54432000
C        2.35532000       2.55874000      -1.72709000
O        1.73096000       2.20992000      -2.87498000
O        3.06877000       3.54815000      -1.64389000
H        2.66927000      -0.52772000       1.01592000
H        1.75548000      -1.73118000       0.09788000
H        0.90449000      -0.41200000       0.92185000
H        2.86032000      -0.09458000      -1.42900000
H       -0.06856000       0.00762000      -1.26365000
H        0.83549000      -1.03232000      -2.10241000
H        2.79750000       1.83406000       0.20661000
H        1.06867000       2.03825000      -0.11584000
H        1.20193000       1.37922000      -2.75110000
14
Properties=species:S:1:pos:R:3 energy=-1511.0 pbc="F F F"
C        2.67352000       0.41472000       0.88075000
C        2.32187000       0.08203000      -0.59723000
C        2.66679000       1.48819000      -0.79641000
C        2.49641000       2.67429000      -1.40709000
C        2.99488000       3.60229000      -0.42523000
C        3.37761000       2.88817000       0.71359000
N        3.32433000       1.57868000       0.36753000
H        3.35653000      -0.27633000       1.37986000
H        1.84929000       0.65110000       1.56390000
H        1.30876000      -0.19889000      -0.88127000
H        3.02263000      -0.62504000      -1.06070000
H        1.96781000       2.90351000      -2.32203000
H        2.96025000       4.68222000      -0.49691000
H        3.70299000       3.21183000       1.69291000
21
Properties=species:S:1:pos:R:3 energy=-2044.34 pbc="F F F"
C        1.05168000       0.22880000       0.84676000
C        2.52030000       0.04712000       0.49907000
C        3.28836000       1.36416000       0.60227000
C        4.75208000       1.15511000       0.23933000
C        5.68327000       2.37708000       0.46381000
C        6.77875000       1.37510000       0.88034000
C        5.64409000       0.40428000       1.26527000
H        0.52144000      -0.72487000       0.76251000
H        0.57391000       0.94427000       0.17020000
H        0.93418000       0.59332000       1.87209000
H        2.60497000      -0.35532000      -0.51763000
H        2.96002000      -0.69879000       1.17178000
H        3.19708000       1.76907000       1.61723000
H        2.84600000       2.10059000      -0.07904000
H        4.85916000       0.75034000      -0.77802000
H        5.37098000       3.04587000       1.27477000
H        5.90298000       2.97539000      -0.42430000
H        7.39600000       1.02357000       0.04578000
H        7.43016000       1.69405000       1.69757000
H        5.83143000      -0.65060000       1.04845000
H        5.31916000       0.50161000       2.30791000
19
Properties=species:S:1:pos:R:3 energy=-1735.5 pbc="F F F"
C        0.90671000      -0.06662000       0.16696000
C        2.42161000       0.04562000      -0.07481000
N        3.07941000      -0.73967000       1.00061000
C        2.81173000      -0.55329000      -1.45733000
N        2.20445000       0.12326000      -2.60665000
C        2.88457000       1.52387000       0.02569000
O        2.69709000       2.03367000       1.35149000
H        0.34445000       0.57373000      -0.52087000
H        0.63139000       0.23400000       1.18460000
H        0.55808000      -1.09649000       0.02581000
H        2.94516000      -0.21610000       1.87287000
H        4.09042000      -0.70434000       0.85828000
H        2.53634000      -1.61476000      -1.49631000
H        3.90139000      -0.50748000      -1.57845000
H        1.20050000      -0.06069000      -2.61143000
H        2.55930000      -0.30462000      -3.46200000
H        2.34004000       2.17143000      -0.66953000
H        3.95286000       1.60931000      -0.20148000
H        1.74344000       2.18893000       1.46261000
19
Properties=species:S:1:pos:R:3 energy=-1738.8 pbc="F F F"
C        3.06617000      -1.00057000      -1.17499000
C        2.64963000      -0.09358000      -0.01998000
N        3.04191000      -0.68650000       1.27204000
C        3.17561000       1.36387000      -0.16497000
N        2.83547000       2.15677000       1.04981000
C        4.69797000       1.47203000      -0.37868000
O        5.07601000       2.84980000      -0.37029000
H        2.78294000      -0.55640000      -2.13520000
H        2.56935000      -1.97450000      -1.10112000
H        4.14601000      -1.18152000      -1.18769000
H        1.55298000      -0.04220000      -0.01678000
H        4.04793000      -0.85895000       1.28237000
H        2.61076000      -1.60782000       1.36142000
H        2.67525000       1.84944000      -1.01190000
H        3.08120000       1.55167000       1.84523000
H        1.81681000       2.20562000       1.11377000
H        4.99922000       1.04996000      -1.34134000
H        5.25902000       0.96865000       0.41548000
H        4.48605000       3.24664000       0.30980000
17
Properties=species:S:1:pos:R:3 energy=-1625.46 pbc="F F F"
C        0.91871000      -0.04073000      -0.04795000
C        2.44007000       0.01092000       0.04635000
N        3.05341000      -0.74124000      -1.06686000
C        2.94407000       1.46800000       0.06270000
N        4.39283000       1.51180000       0.06272000
C        5.09055000       2.62017000       0.45052000
O        4.60388000       3.64792000       0.89898000
H        0.46384000       0.49327000       0.79243000
H        0.55912000      -1.07459000      -0.01857000
H        0.55750000       0.41803000      -0.97450000
H        2.75516000      -0.47584000       0.97758000
H        2.73330000      -0.34752000      -1.95305000
H        2.70166000      -1.69987000      -1.05147000
H        2.56650000       1.99974000       0.94261000
H        2.60581000       2.01009000      -0.82811000
H        4.86654000       0.75273000      -0.41582000
H        6.17702000       2.48918000       0.31784000
13
Properties=species:S:1:pos:R:3 energy=-1389.73 pbc="F F F"
C        2.26381000       0.61489000      -0.77606000
C        2.44586000       0.02309000       0.63228000
C        3.24487000       1.24235000       0.87345000
N        3.20916000       2.26520000       1.67899000
C        3.30326000       3.34273000       0.81675000
C        3.24342000       2.93527000      -0.50708000
N        3.27112000       1.57657000      -0.43704000
H        1.29278000       1.06269000      -1.01802000
H        2.56365000      -0.03869000      -1.60198000
H        3.03589000      -0.89987000       0.63698000
H        1.56892000      -0.09927000       1.27050000
H        3.32715000       4.35684000       1.19524000
H        3.19394000       3.47596000      -1.44035000
18
Properties=species:S:1:pos:R:3 energy=-1756.52 pbc="F F F"
C        1.90316000      -0.07517000      -1.26162000
C        2.42871000       0.24662000       0.12498000
N        3.12167000       1.51835000       0.14981000
C        4.46591000       1.62335000      -0.14086000
O        5.17830000       0.66173000      -0.40817000
C        4.96313000       3.05529000      -0.09941000
C        6.46225000       3.15458000      -0.31886000
H        1.37548000      -1.03377000      -1.25556000
H        2.71790000      -0.13582000      -1.99032000
H        1.20678000       0.69770000      -1.60366000
H        3.10767000      -0.54344000       0.46246000
H        1.60098000       0.31540000       0.83653000
H        2.57756000       2.36210000       0.27332000
H        4.70783000       3.48668000       0.87476000
H        4.44065000       3.62398000      -0.87677000
H        7.00866000       2.59870000       0.45040000
H        6.78450000       4.19947000      -0.27961000
H        6.74619000       2.74518000      -1.29368000
18
Properties=species:S:1:pos:R:3 energy=-1668.51 pbc="F F F"
C        0.97535000      -0.11571000      -0.02762000
C        2.50923000      -0.01783000      -0.06872000
N        3.01890000      -0.77629000       1.10506000
C        3.05548000      -0.67578000      -1.35674000
O        2.78910000      -2.07858000      -1.34696000
C        2.97023000       1.45724000      -0.00209000
O        2.61456000       2.05755000       1.24450000
H        0.52903000       0.43327000      -0.86468000
H        0.56296000       0.30060000       0.89837000
H        0.63230000      -1.15470000      -0.09523000
H        2.73356000      -0.25726000       1.94312000
H        4.03912000      -0.70517000       1.12222000
H        4.14095000      -0.54883000      -1.43598000
H        2.59586000      -0.24543000      -2.25281000
H        2.84070000      -2.33195000      -0.40057000
H        2.53279000       2.05191000      -0.81278000
H        4.05984000       1.52504000      -0.09026000
H        1.65553000       2.21917000       1.23025000
17
Properties=species:S:1:pos:R:3 energy=-1595.62 pbc="F F F"
C        0.85662000       0.18935000      -0.29002000
C        2.28409000      -0.22859000       0.02599000
N        3.16271000       0.94305000      -0.01162000
N        4.50106000       0.59706000       0.27264000
C        4.93906000       0.42293000       1.64428000
C        5.40195000       0.46669000      -0.77247000
O        6.58933000       0.18020000      -0.66124000
H        0.19539000      -0.68304000      -0.27096000
H        0.78770000       0.64292000      -1.28463000
H        0.48243000       0.91159000       0.44353000
H        2.61176000      -0.96989000      -0.71189000
H        2.31004000      -0.70045000       1.01496000
H        2.84615000       1.64386000       0.66199000
H        4.15313000       0.71624000       2.34571000
H        5.83119000       1.03214000       1.81789000
H        5.19785000      -0.62903000       1.79669000
H        4.93539000       0.64532000      -1.75621000
18
Properties=species:S:1:pos:R:3 energy=-1761.93 pbc="F F F"
C        0.80485000       0.41931000      -0.82226000
C       -0.03731000       1.23331000       0.11591000
C        0.28856000      -0.19707000       0.44923000
N        1.23697000      -0.47099000       1.53518000
C        0.57026000      -0.69139000       2.84442000
C        1.60147000      -1.80473000       3.10521000
C        1.68753000      -1.88632000       1.56969000
H        0.36190000       0.09734000      -1.75663000
H        1.86100000       0.65440000      -0.88696000
H       -1.05326000       1.46417000      -0.18027000
H        0.45046000       2.01679000       0.68431000
H       -0.52755000      -0.90957000       0.33956000
H       -0.46492000      -1.05189000       2.79184000
H        0.61641000       0.15893000       3.53067000
H        2.52278000      -1.45896000       3.58841000
H        1.23304000      -2.69592000       3.61831000
H        2.68919000      -2.05870000       1.16595000
H        0.99481000      -2.61389000       1.12783000
17
Properties=species:S:1:pos:R:3 energy=-1564.39 pbc="F F F"
C        4.24982000      -1.20646000       0.69594000
C        3.20000000      -0.16970000       0.32677000
N        3.79990000       1.13147000       0.05291000
O        4.20680000       1.81280000       1.21334000
C        3.27944000       2.88132000       1.41374000
C        4.62028000       1.34460000      -1.02468000
N        5.53623000       2.24434000      -1.14008000
H        3.77166000      -2.16376000       0.92547000
H        4.82665000      -0.89357000       1.57160000
H        4.95214000      -1.36937000      -0.12817000
H        2.47503000      -0.07573000       1.14395000
H        2.64089000      -0.50653000      -0.55378000
H        3.60756000       3.45698000       2.28301000
H        2.27816000       2.48746000       1.61362000
H        3.25833000       3.54815000       0.54453000
H        4.42885000       0.65202000      -1.86216000
H        5.55311000       2.74704000      -0.24509000
18
Properties=species:S:1:pos:R:3 energy=-1784.07 pbc="F F F"
C       -1.69096000       0.84148000       0.56151000
C       -1.18077000      -0.30020000      -0.27216000
C       -0.34348000      -1.40427000       0.29573000
C        1.05090000      -1.31470000      -0.32126000
C        1.72751000       0.04600000      -0.07361000
N        0.83430000       1.16040000       0.26436000
C       -0.49977000       1.04238000      -0.33683000
H       -2.62430000       1.30634000       0.26552000
H       -1.54481000       0.80618000       1.63404000
H       -1.75081000      -0.60848000      -1.14057000
H       -0.27960000      -1.33339000       1.38815000
H       -0.79669000      -2.37311000       0.05974000
H        1.68548000      -2.12090000       0.06324000
H        0.96375000      -1.46706000      -1.40627000
H        2.45088000      -0.06262000       0.74289000
H        2.31575000       0.31567000      -0.95870000
H        0.75858000       1.22262000       1.27881000
H       -0.64648000       1.62338000      -1.24357000
17
Properties=species:S:1:pos:R:3 energy=-1648.88 pbc="F F F"
C       -1.70895000       0.83291000       0.51570000
C       -1.15508000      -0.24217000      -0.37071000
N       -0.39358000      -1.37806000       0.19358000
C        0.98928000      -1.32281000      -0.32186000
C        1.70074000       0.04853000      -0.12707000
N        0.84942000       1.14810000       0.37462000
C       -0.47218000       1.11390000      -0.28926000
H       -2.62926000       1.31458000       0.20396000
H       -1.62574000       0.72199000       1.58934000
H       -1.69488000      -0.46440000      -1.28742000
H       -0.34971000      -1.28393000       1.20762000
H        1.57619000      -2.11108000       0.16165000
H        0.96709000      -1.56148000      -1.39283000
H        2.53155000      -0.07684000       0.57767000
H        2.14564000       0.35761000      -1.08056000
H        0.72376000       1.01083000       1.37671000
H       -0.56831000       1.76083000      -1.15686000
16
Properties=species:S:1:pos:R:3 energy=-1611.43 pbc="F F F"
C        3.15490000      -1.21186000       0.28745000
C        2.45091000       0.10340000       0.06493000
O        1.23615000       0.13167000      -0.14098000
C        3.23622000       1.38875000       0.08614000
C        2.39713000       2.62804000      -0.04011000
C        4.57347000       1.38109000       0.21623000
N        5.44050000       2.44598000       0.25542000
H        3.67235000      -1.20790000       1.25030000
H        3.85134000      -1.41032000      -0.53113000
H        2.41397000      -2.01736000       0.30882000
H        1.63193000       2.65290000       0.74343000
H        1.89816000       2.65249000      -1.01471000
H        2.97904000       3.54903000       0.05427000
H        5.12588000       0.44910000       0.31637000
H        5.07213000       3.31923000      -0.11321000
H        6.37595000       2.24174000      -0.09112000
20
Properties=species:S:1:pos:R:3 energy=-1865.45 pbc="F F F"
C        0.81477000       0.00693000      -0.19369000
C        2.32610000      -0.18814000      -0.18371000
O        2.72212000      -0.79594000      -1.41186000
C        3.05337000       1.15030000      -0.03015000
C        4.58448000       1.04223000      -0.06477000
C        5.19732000       0.15421000       1.01863000
N        4.84893000       0.61488000       2.35858000
H        0.46764000       0.46476000       0.73742000
H        0.30520000      -0.95446000      -0.31929000
H        0.50564000       0.63806000      -1.03397000
H        2.59245000      -0.86811000       0.63182000
H        2.23489000      -1.63367000      -1.49141000
H        2.73537000       1.64005000       0.89778000
H        2.75876000       1.81416000      -0.85345000
H        5.00237000       2.05374000       0.02064000
H        4.90127000       0.66563000      -1.04516000
H        6.28778000       0.16346000       0.91244000
H        4.87498000      -0.88450000       0.89669000
H        5.17970000       1.57147000       2.48307000
H        5.34815000       0.05225000       3.04646000
19
Properties=species:S:1:pos:R:3 energy=-1794.29 pbc="F F F"
C       -1.48268000       0.74629000       0.13012000
C       -1.47233000      -0.75762000      -0.13589000
N       -0.31389000      -1.47008000       0.39906000
C        0.88821000      -1.24730000      -0.41109000
C        1.68750000       0.03181000      -0.07847000
N        0.94351000       1.19624000       0.41109000
C       -0.25025000       1.49477000      -0.37585000
H       -2.37076000       1.17271000      -0.35294000
H       -1.60969000       0.92658000       1.20628000
H       -1.58371000      -0.95245000      -1.21036000
H       -2.36650000      -1.18617000       0.33259000
H       -0.13680000      -1.17585000       1.35783000
H        1.55474000      -2.10556000      -0.26155000
H        0.63525000      -1.25580000      -1.47837000
H        2.42737000      -0.21599000       0.69291000
H        2.26755000       0.32560000      -0.96290000
H        0.68029000       1.04300000       1.38344000
H       -0.44596000       2.56784000      -0.26705000
H       -0.08801000       1.32331000      -1.44681000
18
Properties=species:S:1:pos:R:3 energy=-1720.81 pbc="F F F"
C        2.79976000       1.92182000       0.67535000
C        4.15323000       1.56947000       0.08562000
O        4.85501000       2.78558000      -0.16816000
C        6.12274000       2.70775000      -0.71175000
C        6.76224000       1.57620000      -1.05408000
C        6.77065000       4.06284000      -0.90063000
N        5.96316000       4.92163000      -1.76509000
H        2.22134000       1.01835000       0.88990000
H        2.22987000       2.55008000      -0.01687000
H        2.91894000       2.49362000       1.60103000
H        4.00570000       1.01576000      -0.84827000
H        4.71062000       0.95477000       0.80178000
H        6.33164000       0.58993000      -0.93419000
H        7.76170000       1.61033000      -1.47801000
H        7.77338000       3.97198000      -1.33187000
H        6.88631000       4.54593000       0.07705000
H        5.82478000       4.43857000      -2.65142000
H        5.03404000       4.97640000      -1.34465000
20
Properties=species:S:1:pos:R:3 energy=-1858.76 pbc="F F F"
C        3.22443000       0.38000000      -2.95464000
C        4.00854000       0.39700000      -1.65667000
O        4.75629000       1.60947000      -1.60114000
C        5.38566000       1.83890000      -0.32828000
C        6.57415000       0.90113000      -0.13205000
C        5.86676000       3.30562000      -0.30644000
N        4.73777000       4.23742000      -0.41439000
H        2.65380000      -0.54749000      -3.05325000
H        3.89630000       0.47581000      -3.81388000
H        2.53144000       1.22659000      -2.99583000
H        4.68701000      -0.46134000      -1.63275000
H        3.31845000       0.33694000      -0.80786000
H        4.65480000       1.69000000       0.47701000
H        7.24910000       0.93996000      -0.99352000
H        6.24377000      -0.13715000      -0.03329000
H        7.13743000       1.15737000       0.77034000
H        6.53829000       3.48481000      -1.15444000
H        6.41424000       3.51930000       0.61734000
H        4.17264000       3.93207000      -1.21122000
H        5.09077000       5.16183000      -0.65621000
20
Properties=species:S:1:pos:R:3 energy=-1851.51 pbc="F F F"
C        1.95906000       3.08899000      -1.81604000
C        2.81168000       1.94087000      -1.31419000
O        3.93287000       2.47929000      -0.61624000
C        4.75914000       1.44007000      -0.07644000
C        5.95238000       2.06760000       0.65635000
N        5.49820000       2.82842000       1.82938000
C        6.60433000       3.53507000       2.45681000
H        1.09334000       2.71757000      -2.37145000
H        2.54201000       3.74743000      -2.46806000
H        1.60568000       3.69992000      -0.97912000
H        3.16107000       1.33876000      -2.16055000
H        2.22296000       1.30758000      -0.64142000
H        5.12812000       0.81324000      -0.89589000
H        4.17285000       0.81817000       0.60934000
H        6.48027000       2.73564000      -0.03535000
H        6.63805000       1.27396000       0.97288000
H        4.79682000       3.49972000       1.50523000
H        7.07360000       4.24533000       1.76867000
H        7.36329000       2.83435000       2.81990000
H        6.23592000       4.09706000       3.32043000
17
Properties=species:S:1:pos:R:3 energy=-1608.5 pbc="F F F"
C        2.24408000       3.48552000      -1.75909000
C        3.15971000       2.51476000      -1.04030000
O        4.43301000       3.13302000      -0.87495000
C        5.33362000       2.28473000      -0.16572000
C        6.69991000       2.96790000      -0.07464000
N        6.75453000       4.32998000      -0.07034000
N        7.80440000       2.29617000       0.00269000
H        1.25911000       3.04053000      -1.92967000
H        2.67165000       3.77927000      -2.72406000
H        2.11950000       4.40320000      -1.17356000
H        3.26920000       1.60026000      -1.63285000
H        2.73806000       2.26126000      -0.06174000
H        5.44458000       1.32749000      -0.68676000
H        4.96894000       2.11538000       0.85318000
H        5.97560000       4.76764000      -0.55599000
H        7.66648000       4.68334000      -0.33455000
H        7.61665000       1.28867000      -0.00299000
16
Properties=species:S:1:pos:R:3 energy=-1564.47 pbc="F F F"
C        1.23605000      -1.10558000       0.28134000
C        2.26779000      -0.30354000      -0.50250000
O        2.39077000      -0.86750000      -1.81334000
C        1.86928000       1.16582000      -0.61129000
C        3.02426000       2.02854000      -1.07002000
N        3.59143000       1.66443000      -2.25411000
O        3.39637000       3.02828000      -0.46647000
H        1.13943000      -0.73746000       1.30783000
H        1.51888000      -2.16387000       0.31442000
H        0.25181000      -1.05812000      -0.20002000
H        3.24483000      -0.39977000      -0.01647000
H        1.49412000      -1.05884000      -2.14520000
H        1.54970000       1.54487000       0.36713000
H        1.04453000       1.30480000      -1.31969000
H        3.46473000       0.71411000      -2.59549000
H        4.41478000       2.17084000      -2.55024000
16
Properties=species:S:1:pos:R:3 energy=-1561.0 pbc="F F F"
C        0.98957000      -0.01562000       0.04115000
C        2.52000000       0.00000000       0.00000000
O        2.97423000      -0.67176000       1.17909000
C        3.01243000      -0.78416000      -1.25711000
N        4.47469000      -0.88745000      -1.41162000
C        3.00202000       1.36117000       0.00000000
C        3.39930000       2.48307000       0.00000000
H        0.55155000       0.47769000      -0.83466000
H        0.61300000       0.49217000       0.93862000
H        0.60932000      -1.04354000       0.08626000
H        2.94976000      -0.02787000       1.90550000
H        2.61028000      -0.31301000      -2.16272000
H        2.62477000      -1.80895000      -1.21645000
H        4.88981000       0.04060000      -1.34974000
H        4.69474000      -1.25566000      -2.33404000
H        3.75864000       3.48665000       0.00276000
19
Properties=species:S:1:pos:R:3 energy=-1739.78 pbc="F F F"
C        0.85013000      -0.19634000      -0.05495000
C        2.35867000       0.04565000      -0.18831000
O        2.98522000      -0.39040000       1.03584000
C        2.97060000      -0.76190000      -1.36213000
N        2.77270000      -2.20958000      -1.22031000
C        2.68370000       1.55232000      -0.37206000
N        2.35436000       2.33371000       0.83167000
H        0.31341000       0.13082000      -0.95095000
H        0.43493000       0.32928000       0.81150000
H        0.63003000      -1.25602000       0.11453000
H        2.90508000       0.38106000       1.63557000
H        4.05188000      -0.58205000      -1.39363000
H        2.54648000      -0.43530000      -2.31752000
H        2.99056000      -2.44294000      -0.24623000
H        3.45987000      -2.70161000      -1.78792000
H        2.15837000       1.96363000      -1.24073000
H        3.75981000       1.67264000      -0.54202000
H        1.33973000       2.38728000       0.93335000
H        2.66250000       3.29715000       0.69148000
17
Properties=species:S:1:pos:R:3 energy=-1608.25 pbc="F F F"
C        3.07205000      -0.97845000      -1.44163000
C        2.52312000      -0.31335000      -0.18539000
O        2.65251000      -1.20986000       0.91675000
C        3.19237000       1.03802000       0.12454000
N        4.62898000       0.91082000       0.31056000
C        5.26852000       0.56511000       1.45631000
N        4.75455000       0.19296000       2.56920000
H        2.97883000      -0.32120000      -2.31183000
H        2.52608000      -1.90607000      -1.64707000
H        4.12348000      -1.25885000      -1.32149000
H        1.45003000      -0.13992000      -0.32434000
H        3.60825000      -1.32230000       1.08895000
H        2.74410000       1.47918000       1.02232000
H        3.00758000       1.73544000      -0.70130000
H        5.20147000       1.16709000      -0.48748000
H        6.36670000       0.60268000       1.35500000
H        3.73054000       0.20877000       2.52048000
18
Properties=species:S:1:pos:R:3 energy=-1668.68 pbc="F F F"
C        1.03832000      -0.23542000       0.17868000
C        2.51231000       0.06006000      -0.11794000
O        3.32865000      -0.44908000       0.96289000
C        2.98616000      -0.62139000      -1.42780000
N        2.83088000      -2.08302000      -1.38348000
C        2.74418000       1.58249000      -0.18754000
O        4.13495000       1.87353000      -0.31996000
H        0.39310000       0.08956000      -0.64298000
H        0.71558000       0.27693000       1.09207000
H        0.87229000      -1.30299000       0.35666000
H        2.86177000      -0.26087000       1.79609000
H        4.04987000      -0.41364000      -1.59043000
H        2.43010000      -0.23118000      -2.28651000
H        3.28048000      -2.40711000      -0.52317000
H        3.36089000      -2.49510000      -2.15010000
H        2.40833000       2.06618000       0.73569000
H        2.21208000       2.03444000      -1.03002000
H        4.59355000       1.24381000       0.27142000
17
Properties=species:S:1:pos:R:3 energy=-1613.38 pbc="F F F"
C        2.54017000      -1.20180000      -0.21024000
C        3.89904000      -0.54336000      -0.07600000
O        3.70119000       0.87728000       0.00352000
C        4.75742000       1.71477000       0.08312000
N        5.98517000       1.34136000       0.11187000
N        4.33540000       2.99973000       0.11678000
C        5.21666000       4.10248000      -0.17153000
H        2.63864000      -2.28826000      -0.28434000
H        2.01895000      -0.83213000      -1.09928000
H        1.90873000      -0.96174000       0.65162000
H        4.51126000      -0.78074000      -0.95330000
H        4.39405000      -0.89517000       0.83528000
H        6.06792000       0.32911000       0.08460000
H        3.36753000       3.11829000      -0.15074000
H        6.08876000       4.09554000       0.49023000
H        4.68737000       5.04758000      -0.01885000
H        5.55636000       4.06492000      -1.21017000
16
Properties=species:S:1:pos:R:3 energy=-1564.61 pbc="F F F"
C        4.28904000       4.08368000      -2.18337000
C        3.11382000       3.67463000      -1.31471000
O        3.45291000       3.80398000       0.07330000
C        4.08831000       2.74057000       0.62294000
O        4.39140000       1.71202000       0.03857000
N        4.35539000       3.01421000       1.92915000
C        5.15291000       2.14172000       2.74509000
H        4.02006000       4.04633000      -3.24277000
H        5.14838000       3.42602000      -2.01846000
H        4.61425000       5.09971000      -1.93653000
H        2.77445000       2.65899000      -1.54907000
H        2.26908000       4.34599000      -1.50105000
H        4.14550000       3.95479000       2.23208000
H        4.90063000       1.09715000       2.54387000
H        4.96536000       2.37694000       3.79506000
H        6.20702000       2.31150000       2.51038000
18
Properties=species:S:1:pos:R:3 energy=-1699.78 pbc="F F F"
C        2.38177000       1.06679000      -1.38693000
C        3.28544000       1.34919000      -0.20376000
O        4.58720000       1.67039000      -0.69285000
N        5.41221000       1.96288000       0.40340000
C        6.58485000       2.28191000      -0.03587000
C        7.68615000       2.65555000       0.91525000
C        8.82396000       1.65848000       0.81315000
H        1.37139000       0.81311000      -1.05429000
H        2.77592000       0.23837000      -1.98460000
H        2.32781000       1.93856000      -2.04729000
H        3.34587000       0.46665000       0.44268000
H        2.89247000       2.19303000       0.37440000
H        6.82264000       2.29519000      -1.11459000
H        7.29906000       2.68743000       1.93882000
H        8.03986000       3.65595000       0.64627000
H        8.48291000       0.64705000       1.05744000
H        9.62959000       1.92645000       1.50341000
H        9.23570000       1.63426000      -0.20130000
14
Properties=species:S:1:pos:R:3 energy=-1396.15 pbc="F F F"
C        0.02578000       0.11859000       0.45347000
C        1.49697000      -0.24400000       0.46018000
O        2.22215000       0.79293000      -0.20052000
N        3.58294000       0.44790000      -0.20401000
C        4.23936000       1.38072000      -0.79595000
C        5.64778000       1.11223000      -0.84926000
C        6.82772000       0.89142000      -0.89699000
H       -0.56822000      -0.65135000       0.95369000
H       -0.33793000       0.23452000      -0.57287000
H       -0.13788000       1.07590000       0.95926000
H        1.65228000      -1.19232000      -0.06622000
H        1.85552000      -0.34088000       1.49095000
H        3.82263000       2.30147000      -1.23168000
H        7.87228000       0.68547000      -0.93411000
17
Properties=species:S:1:pos:R:3 energy=-1629.05 pbc="F F F"
C        0.93318000       2.36183000       0.63290000
C        2.20827000       1.56086000       0.62214000
O        2.22879000       0.37000000       0.91728000
N        3.32238000       2.27530000       0.26490000
C        4.61551000       1.63815000       0.11394000
C        5.74181000       2.67907000       0.07055000
N        5.51837000       3.67472000      -0.98547000
H        1.11925000       3.42360000       0.45286000
H        0.45498000       2.25649000       1.61118000
H        0.26656000       1.98250000      -0.14645000
H        3.22623000       3.18451000      -0.17529000
H        4.58990000       1.05711000      -0.81577000
H        4.77259000       0.93959000       0.94304000
H        6.70335000       2.18026000      -0.08803000
H        5.78977000       3.20392000       1.03121000
H        5.54383000       3.20847000      -1.89300000
H        6.30214000       4.32860000      -0.98933000
13
Properties=species:S:1:pos:R:3 energy=-1360.84 pbc="F F F"
C        1.09629000      -0.19299000       0.22183000
C        2.49183000      -0.22149000      -0.33888000
O        2.85291000      -1.05170000      -1.16580000
N        3.32971000       0.74013000       0.16713000
C        4.72419000       0.77363000      -0.23515000
C        5.43098000       1.93328000       0.32812000
N        5.96386000       2.85205000       0.79570000
H        0.88395000       0.75626000       0.72158000
H        0.98266000      -1.00865000       0.94060000
H        0.37958000      -0.31719000      -0.59467000
H        3.02941000       1.30670000       0.95162000
H        4.76766000       0.79051000      -1.32959000
H        5.19115000      -0.15859000       0.10119000
16
Properties=species:S:1:pos:R:3 energy=-1559.48 pbc="F F F"
C        0.98765000      -0.41845000      -0.11767000
C        2.46844000      -0.66015000      -0.00259000
O        2.94031000      -1.78243000       0.14991000
N        3.24409000       0.47131000      -0.05874000
C        4.69934000       0.42385000      -0.01363000
C        5.24775000       0.08235000       1.37627000
O        5.16447000      -1.30923000       1.66467000
H        0.75763000       0.64049000      -0.26267000
H        0.49922000      -0.75964000       0.79862000
H        0.60131000      -0.97794000      -0.97381000
H        2.79715000       1.37742000      -0.12273000
H        5.04898000       1.41536000      -0.31731000
H        5.03525000      -0.31528000      -0.74920000
H        4.71512000       0.63182000       2.15910000
H        6.30709000       0.35251000       1.42798000
H        4.36016000      -1.66041000       1.22272000
17
Properties=species:S:1:pos:R:3 energy=-1666.96 pbc="F F F"
C       -1.20652000      -0.70733000      -0.56780000
N       -1.26184000       0.77956000      -0.46435000
C       -0.02208000       1.09212000       0.30216000
C        1.21599000       0.71115000      -0.54288000
N        1.26949000      -0.77712000      -0.44606000
C        0.01826000      -1.09314000       0.29616000
C       -0.01134000      -0.00279000       1.35213000
H       -1.10587000      -1.02800000      -1.60945000
H       -2.12558000      -1.13596000      -0.15332000
H       -2.07022000       1.03317000       0.10312000
H       -0.00585000       2.11550000       0.68236000
H        2.12823000       1.13741000      -0.11080000
H        1.13369000       1.03709000      -1.58515000
H        2.06836000      -1.03299000       0.13323000
H       -0.00547000      -2.11849000       0.67140000
H       -0.91068000      -0.02360000       1.97841000
H        0.87662000       0.01392000       1.99371000
16
Properties=species:S:1:pos:R:3 energy=-1498.91 pbc="F F F"
C        1.16086000      -0.38974000       0.46953000
C        2.55051000      -0.24889000      -0.11848000
O        3.08107000       1.01539000       0.28015000
N        4.46905000       1.00471000       0.08037000
C        4.94302000       2.15565000       0.44007000
C        6.42956000       2.42347000       0.39999000
O        7.14084000       1.47036000      -0.36411000
H        0.71367000      -1.34749000       0.19055000
H        0.51020000       0.42007000       0.12461000
H        1.19951000      -0.32328000       1.56188000
H        2.50932000      -0.28910000      -1.21228000
H        3.18989000      -1.06121000       0.24687000
H        4.29881000       2.96134000       0.83526000
H        6.80682000       2.41908000       1.42671000
H        6.59662000       3.41694000      -0.02531000
H        6.61648000       0.64593000      -0.31676000
13
Properties=species:S:1:pos:R:3 energy=-1365.99 pbc="F F F"
C        2.58364000       0.08046000       0.68122000
N        1.69225000       0.42789000      -0.44183000
C        2.45080000       1.50783000      -0.69330000
C        2.52092000       2.77920000      -1.12359000
N        3.56448000       3.32799000      -0.36559000
C        3.97032000       2.42548000       0.62862000
C        3.30613000       1.29063000       0.32348000
H        3.09765000      -0.87018000       0.51477000
H        2.12182000       0.08659000       1.67169000
H        1.69161000      -0.29925000      -1.14943000
H        1.89104000       3.40606000      -1.74123000
H        3.81443000       4.30791000      -0.37428000
H        4.55149000       2.75929000       1.47620000
16
Properties=species:S:1:pos:R:3 energy=-1571.53 pbc="F F F"
C        1.05589000       0.02627000       0.26796000
N        2.50178000       0.00621000       0.03138000
C        2.90381000      -1.26484000      -0.62466000
C        2.79906000      -0.98841000      -2.08918000
O        3.90350000      -0.30923000      -2.69872000
C        2.79091000       0.48127000      -2.26326000
C        2.89087000       1.09326000      -0.90399000
H        0.76246000       0.96602000       0.74915000
H        0.77215000      -0.77818000       0.95580000
H        0.46981000      -0.08589000      -0.65165000
H        2.28420000      -2.11363000      -0.31554000
H        3.94130000      -1.49661000      -0.35664000
H        2.14994000      -1.62166000      -2.66851000
H        2.13550000       0.95448000      -2.97346000
H        3.92548000       1.39247000      -0.69881000
H        2.26167000       1.98412000      -0.80072000
18
Properties=species:S:1:pos:R:3 energy=-1707.83 pbc="F F F"
C        1.09716000       0.00771000       0.01382000
N        2.55683000      -0.00236000      -0.00174000
C        3.09436000       1.01767000       0.93564000
C        4.13796000      -0.02790000       1.37172000
C        3.08427000      -1.06608000       0.90955000
C        3.60431000      -2.28170000       0.15346000
O        4.32656000      -3.12581000       1.04784000
H        0.71337000      -0.86183000      -0.53016000
H        0.72686000       0.90161000      -0.49911000
H        0.66553000      -0.00672000       1.02160000
H        2.42236000       1.32962000       1.74543000
H        3.50345000       1.91023000       0.45349000
H        5.06046000      -0.00952000       0.77925000
H        4.39146000      -0.03892000       2.43456000
H        2.40318000      -1.35607000       1.72381000
H        4.26630000      -2.00798000      -0.67537000
H        2.77222000      -2.86482000      -0.25377000
H        5.16523000      -2.67616000       1.24880000
14
Properties=species:S:1:pos:R:3 energy=-1487.22 pbc="F F F"
C        1.13357000       0.00014000       0.17251000
N        2.55586000       0.00493000      -0.06399000
C        3.31811000      -1.20588000      -0.17728000
C        4.67496000      -0.65838000      -0.45231000
C        4.69443000       0.67810000      -0.50434000
C        3.31686000       1.13487000      -0.26259000
O        2.96925000       2.29996000      -0.25445000
H        0.75474000       1.02135000       0.26360000
H        0.92929000      -0.54843000       1.09579000
H        0.63909000      -0.49570000      -0.66711000
H        2.94197000      -1.80958000      -1.00756000
H        3.27878000      -1.76188000       0.76303000
H        5.54437000      -1.28397000      -0.59463000
H        5.51836000       1.34371000      -0.68602000
16
Properties=species:S:1:pos:R:3 energy=-1628.6 pbc="F F F"
C        1.11699000      -0.01686000       0.19339000
N        2.50128000       0.00878000      -0.21444000
C        3.29746000       1.20416000      -0.13276000
C        4.57761000       0.81118000      -0.84236000
C        4.71386000      -0.67836000      -0.54653000
C        3.28406000      -1.12797000      -0.36112000
O        2.91279000      -2.28688000      -0.29838000
H        0.69379000      -1.01558000       0.05601000
H        0.55755000       0.70406000      -0.40874000
H        1.05473000       0.25666000       1.25048000
H        3.47477000       1.43484000       0.92324000
H        2.79013000       2.04153000      -0.61947000
H        4.46375000       0.95879000      -1.92362000
H        5.44330000       1.39262000      -0.51328000
H        5.18843000      -1.21255000      -1.37323000
H        5.26222000      -0.85295000       0.38423000
18
Properties=species:S:1:pos:R:3 energy=-1782.09 pbc="F F F"
C       -0.91368000       0.00134000      -1.15954000
C       -0.59570000       1.04461000      -0.03908000
C       -1.23261000      -0.00154000       0.92211000
C       -0.59614000      -1.04471000      -0.04206000
C        0.90008000      -1.21937000       0.24928000
N        1.66223000      -0.00041000      -0.07370000
C        0.90039000       1.21801000       0.25268000
H       -1.95735000       0.00203000      -1.49804000
H       -0.26778000       0.00258000      -2.04159000
H       -1.13545000       1.99383000      -0.10263000
H       -0.87904000      -0.00281000       1.95707000
H       -2.32992000      -0.00124000       0.93263000
H       -1.13599000      -1.99386000      -0.10811000
H        1.05563000      -1.48570000       1.30101000
H        1.30173000      -2.04508000      -0.34873000
H        1.84733000       0.00100000      -1.07768000
H        1.30220000       2.04515000      -0.34296000
H        1.05594000       1.48122000       1.30511000
18
Properties=species:S:1:pos:R:3 energy=-1711.1 pbc="F F F"
C        1.08134000      -0.00799000       0.12804000
N        2.53215000       0.01939000      -0.01849000
C        3.13138000       1.03835000       0.88772000
C        4.26271000       0.00369000       1.18088000
C        4.76655000      -0.03712000       2.61043000
O        5.39908000       0.05258000       0.27811000
C        3.16362000      -1.04211000       0.81563000
H        0.67082000      -0.87367000      -0.40320000
H        0.64490000       0.88848000      -0.32584000
H        0.74273000      -0.05850000       1.16997000
H        2.53252000       1.31734000       1.76451000
H        3.45425000       1.95264000       0.38054000
H        3.94178000      -0.07226000       3.32990000
H        5.36807000       0.84986000       2.83582000
H        5.39211000      -0.92042000       2.77666000
H        4.97980000       0.07657000      -0.60298000
H        3.51354000      -1.90844000       0.24574000
H        2.57439000      -1.40036000       1.66999000
15
Properties=species:S:1:pos:R:3 energy=-1506.22 pbc="F F F"
C        1.10725000      -0.04033000       0.18420000
N        2.49261000       0.01728000      -0.20791000
C        3.26277000       1.24106000      -0.18135000
C        4.62440000       0.80097000      -0.70331000
N        4.61832000      -0.62115000      -0.49970000
C        3.32709000      -1.09028000      -0.30417000
O        3.01788000      -2.26559000      -0.23536000
H        0.72559000      -1.05967000       0.09123000
H        0.53070000       0.62897000      -0.45849000
H        1.02139000       0.28153000       1.22505000
H        3.32597000       1.58396000       0.85628000
H        2.79657000       2.01130000      -0.80243000
H        4.72143000       0.98578000      -1.77722000
H        5.46079000       1.26219000      -0.17252000
H        5.35572000      -1.26979000      -0.74127000
14
Properties=species:S:1:pos:R:3 energy=-1433.18 pbc="F F F"
C        1.10471000      -0.02768000       0.16871000
N        2.47706000       0.02974000      -0.26807000
C        3.25465000       1.22422000      -0.17714000
C        4.58527000       0.76347000      -0.71645000
O        4.60623000      -0.64699000      -0.46451000
C        3.31435000      -1.06262000      -0.27757000
O        2.99326000      -2.22856000      -0.11605000
H        0.68736000      -1.02056000      -0.02094000
H        0.52623000       0.72420000      -0.37404000
H        1.06486000       0.17478000       1.24279000
H        3.33283000       1.50759000       0.87818000
H        2.81286000       2.04159000      -0.75222000
H        4.67062000       0.91954000      -1.79713000
H        5.42799000       1.24948000      -0.21722000
18
Properties=species:S:1:pos:R:3 energy=-1720.75 pbc="F F F"
C        1.00349000       0.03647000       0.16390000
N        2.45528000       0.01301000      -0.00255000
C        2.92388000      -1.27205000      -0.56388000
C        2.64038000      -1.44425000      -2.06557000
O        3.17640000      -0.35530000      -2.82878000
C        2.64335000       0.89394000      -2.36984000
C        2.92671000       1.11078000      -0.87389000
H        0.68981000       0.98082000       0.62175000
H        0.68745000      -0.75977000       0.84636000
H        0.45543000      -0.08398000      -0.77534000
H        2.50347000      -2.11310000      -0.00105000
H        4.00989000      -1.31478000      -0.41178000
H        3.11658000      -2.36157000      -2.42595000
H        1.56675000      -1.53116000      -2.26861000
H        3.12225000       1.68711000      -2.95239000
H        1.57037000       0.92887000      -2.58876000
H        4.01286000       1.18872000      -0.73699000
H        2.50823000       2.06899000      -0.54490000
13
Properties=species:S:1:pos:R:3 energy=-1364.84 pbc="F F F"
C        1.09675000       0.00008000      -0.16700000
N        2.51474000       0.01566000       0.08808000
C        3.30420000      -1.05836000       0.23295000
N        4.55689000      -0.85213000       0.46420000
C        4.68297000       0.63056000       0.49001000
C        3.27986000       1.13012000       0.23427000
O        2.92340000       2.29546000       0.17552000
H        0.70733000       1.01391000      -0.28499000
H        0.59716000      -0.49700000       0.66925000
H        0.90873000      -0.58278000      -1.07371000
H        2.84251000      -2.05280000       0.14659000
H        5.02938000       0.96233000       1.47199000
H        5.35469000       0.96585000      -0.30417000
16
Properties=species:S:1:pos:R:3 energy=-1648.89 pbc="F F F"
C       -0.45216000       1.49027000      -0.48073000
N       -1.36950000       0.62866000       0.24867000
C       -1.37285000      -0.74042000      -0.24322000
C       -0.25146000      -1.55770000       0.31131000
C        1.02965000      -1.18876000       0.44496000
C        1.62523000       0.04084000      -0.01209000
C        1.00758000       1.16156000      -0.41327000
H       -0.56904000       2.49862000      -0.06417000
H       -0.75314000       1.56201000      -1.53344000
H       -2.30758000       1.01017000       0.15448000
H       -1.39845000      -0.79860000      -1.33761000
H       -2.30537000      -1.20310000       0.10297000
H       -0.53006000      -2.54889000       0.66227000
H        1.72485000      -1.89694000       0.89318000
H        2.71433000       0.02664000      -0.03658000
H        1.64942000       1.97478000      -0.74972000
17
Properties=species:S:1:pos:R:3 energy=-1581.53 pbc="F F F"
C        2.77584000      -1.06053000      -0.75662000
N        2.25086000       0.15776000      -0.15245000
C        3.30685000       1.17999000       0.02962000
C        3.49680000       2.25330000      -1.01994000
N        2.63561000       2.25690000      -2.21650000
C        2.90452000       2.60404000       0.31984000
O        3.76655000       3.33009000       1.21350000
H        1.96414000      -1.78206000      -0.89073000
H        3.53995000      -1.52222000      -0.12279000
H        3.20718000      -0.85838000      -1.74227000
H        1.84729000      -0.07319000       0.75658000
H        4.19973000       0.83292000       0.54697000
H        4.51593000       2.58594000      -1.20037000
H        1.79357000       1.71915000      -1.98561000
H        3.07985000       1.70746000      -2.95133000
H        1.84388000       2.83022000       0.36039000
H        3.73452000       4.28124000       1.00847000
15
Properties=species:S:1:pos:R:3 energy=-1509.52 pbc="F F F"
C        1.05756000       1.19130000      -0.09709000
N       -0.24472000       1.28771000       0.57262000
N       -1.33297000       0.85389000      -0.10626000
C       -1.43720000      -0.44017000      -0.22158000
C       -0.51636000      -1.49803000       0.34845000
C        0.93510000      -1.35386000       0.00339000
C        1.59659000      -0.20604000      -0.21205000
H        1.77662000       1.77594000       0.48920000
H        1.00876000       1.64941000      -1.09119000
H       -0.38755000       2.27289000       0.80550000
H       -2.32773000      -0.81577000      -0.75384000
H       -0.86397000      -2.45045000      -0.07222000
H       -0.65805000      -1.56044000       1.43316000
H        1.49205000      -2.28610000      -0.07577000
H        2.65051000      -0.26548000      -0.47545000
20
Properties=species:S:1:pos:R:3 energy=-1860.3 pbc="F F F"
C        1.31270000       1.94674000       0.92763000
N        2.73189000       2.05939000       1.25610000
C        3.55516000       1.46761000       0.19760000
C        5.04942000       1.57722000       0.52008000
C        5.65532000       2.98340000       0.39838000
C        5.24550000       3.96264000       1.49350000
O        3.96016000       4.50819000       1.24299000
H        0.72002000       2.42231000       1.71563000
H        1.00040000       0.90052000       0.85360000
H        1.08160000       2.45910000      -0.01218000
H        2.90030000       1.55352000       2.12924000
H        3.35625000       1.95839000      -0.76116000
H        3.30164000       0.40610000       0.08871000
H        5.58357000       0.93007000      -0.18830000
H        5.25449000       1.16775000       1.51744000
H        5.41069000       3.39845000      -0.58650000
H        6.74550000       2.87012000       0.44257000
H        5.94860000       4.80122000       1.51520000
H        5.25307000       3.49548000       2.48353000
H        3.33571000       3.74788000       1.25491000
18
Properties=species:S:1:pos:R:3 energy=-1726.03 pbc="F F F"
C        0.85356000      -0.44440000      -0.21952000
N        2.30263000      -0.29868000      -0.38995000
C        2.71775000      -0.95109000      -1.63854000
C        2.65828000       1.13543000      -0.39789000
C        4.16860000       1.33338000      -0.37969000
C        4.92421000       0.79125000       0.80594000
O        4.75007000       1.93028000      -1.28860000
H        0.53108000       0.00157000       0.72683000
H        0.57607000      -1.50305000      -0.17773000
H        0.29147000       0.02831000      -1.03373000
H        2.43438000      -2.00928000      -1.62695000
H        3.80617000      -0.92802000      -1.75194000
H        2.26598000      -0.48359000      -2.51998000
H        2.26734000       1.63539000       0.49811000
H        2.24060000       1.65066000      -1.27143000
H        4.48441000       1.17403000       1.72980000
H        5.96725000       1.11925000       0.75521000
H        4.89925000      -0.30102000       0.79811000
20
Properties=species:S:1:pos:R:3 energy=-1859.41 pbc="F F F"
C        2.87289000      -0.78467000       1.08721000
N        2.57458000       0.05238000      -0.06930000
C        3.04985000       1.45812000       0.02103000
C        2.56222000       2.14680000      -1.27150000
C        2.45660000       2.20909000       1.22393000
C        4.60009000       1.51969000       0.06667000
O        5.15960000       0.70353000      -0.96323000
H        2.49596000      -1.79464000       0.89768000
H        2.38582000      -0.42325000       1.99675000
H        3.94809000      -0.87654000       1.26228000
H        1.56234000       0.05517000      -0.21161000
H        2.93832000       1.64255000      -2.16846000
H        2.90262000       3.18856000      -1.31320000
H        1.46733000       2.15743000      -1.33122000
H        2.82851000       1.81456000       2.17576000
H        1.36320000       2.14303000       1.23469000
H        2.72284000       3.27107000       1.18959000
H        4.98942000       1.16197000       1.02510000
H        4.96240000       2.54254000      -0.07740000
H        4.51861000      -0.02985000      -1.06978000
18
Properties=species:S:1:pos:R:3 energy=-1726.23 pbc="F F F"
C        0.93795000      -0.02228000       0.14409000
N        2.39389000       0.07075000       0.17428000
C        2.88411000       1.46493000       0.22008000
C        2.45303000       2.16699000       1.51498000
C        4.41715000       1.42323000       0.11790000
C        5.03868000       2.77157000      -0.15660000
O        4.41734000       3.77606000      -0.48663000
H        0.64920000      -1.06466000      -0.02584000
H        0.50960000       0.57827000      -0.66460000
H        0.49264000       0.27695000       1.09710000
H        2.75233000      -0.37703000      -0.67012000
H        2.48114000       2.01652000      -0.63878000
H        2.75473000       1.59338000       2.39858000
H        1.36784000       2.30586000       1.55395000
H        2.89955000       3.16281000       1.59851000
H        4.73737000       0.77084000      -0.70392000
H        4.85784000       1.03282000       1.04311000
H        6.14053000       2.79478000      -0.08946000
18
Properties=species:S:1:pos:R:3 energy=-1716.5 pbc="F F F"
C        1.33274000      -0.13986000      -0.00703000
N        2.75147000      -0.41309000      -0.20828000
C        3.53504000       0.82085000      -0.10045000
C        5.00254000       0.51284000      -0.25962000
C        5.72521000       1.02062000      -1.27631000
C        5.63490000      -0.35098000       0.80188000
O        5.10066000      -1.66563000       0.75066000
H        0.76993000      -1.07661000      -0.06908000
H        0.94325000       0.53867000      -0.77362000
H        1.14693000       0.29173000       0.98215000
H        2.87689000      -0.78105000      -1.15447000
H        3.38180000       1.28661000       0.88126000
H        3.20418000       1.54163000      -0.85845000
H        5.27711000       1.65540000      -2.03426000
H        6.78398000       0.80321000      -1.38042000
H        5.44599000       0.06583000       1.79660000
H        6.71945000      -0.42674000       0.67671000
H        4.13955000      -1.55438000       0.58902000
15
Properties=species:S:1:pos:R:3 energy=-1434.55 pbc="F F F"
C        1.28625000       0.18650000       0.33474000
N        2.73577000       0.06094000       0.15054000
C        3.35063000      -1.18464000       0.23537000
C        2.81631000      -2.38721000       0.47504000
C        3.44452000       1.21138000      -0.17601000
N        2.98465000       2.41272000      -0.33089000
O        4.04261000       3.27102000      -0.65712000
H        0.95416000       1.22723000       0.41230000
H        0.96928000      -0.30962000       1.25936000
H        0.75807000      -0.27021000      -0.50970000
H        4.42730000      -1.13338000       0.07489000
H        1.75563000      -2.53118000       0.64139000
H        3.44712000      -3.26997000       0.50674000
H        4.52533000       1.01693000      -0.30879000
H        3.59145000       4.13084000      -0.74658000
16
Properties=species:S:1:pos:R:3 energy=-1549.38 pbc="F F F"
C        0.22232000      -1.74167000       0.67627000
N        1.24549000      -1.16287000      -0.20451000
C        1.97356000      -2.25636000      -0.87406000
C        2.19179000      -0.34177000       0.60997000
C        2.88574000       0.68412000      -0.28538000
O        2.21669000       0.87634000      -1.45212000
O        3.88976000       1.30790000       0.02104000
H        0.65819000      -2.36987000       1.46163000
H       -0.48351000      -2.34790000       0.09760000
H       -0.36465000      -0.94848000       1.15253000
H        1.28750000      -2.83858000      -1.49936000
H        2.44987000      -2.93643000      -0.15839000
H        2.74757000      -1.86234000      -1.54123000
H        2.93987000      -0.96285000       1.11415000
H        1.64212000       0.24222000       1.35765000
H        1.45796000       0.24285000      -1.44113000
16
Properties=species:S:1:pos:R:3 energy=-1557.29 pbc="F F F"
C        1.74178000      -0.93431000       0.15163000
N        3.10742000      -0.76841000      -0.35276000
C        3.57189000       0.61242000      -0.11345000
C        5.04428000       0.73308000      -0.48994000
C        5.95511000      -0.02733000       0.44462000
O        5.50433000      -1.25620000       0.78237000
O        7.04696000       0.39140000       0.80592000
H        1.41199000      -1.96122000      -0.02936000
H        1.04467000      -0.25912000      -0.35619000
H        1.69508000      -0.75659000       1.23032000
H        3.07981000      -0.93080000      -1.36554000
H        3.44583000       0.87372000       0.94455000
H        2.97963000       1.31259000      -0.71355000
H        5.32888000       1.79070000      -0.43679000
H        5.23003000       0.38872000      -1.51351000
H        4.59728000      -1.41891000       0.41587000
19
Properties=species:S:1:pos:R:3 energy=-1730.56 pbc="F F F"
C        2.81799000      -0.75291000      -1.00911000
N        2.58975000      -0.00699000       0.22304000
C        3.08683000       1.38842000       0.12037000
C        2.56232000       2.20773000       1.33882000
N        3.00849000       1.68872000       2.64264000
C        4.63140000       1.47485000       0.03868000
O        5.26753000       0.90045000       1.17808000
H        2.24163000      -1.68406000      -0.98455000
H        3.87330000      -1.02322000      -1.13082000
H        2.49208000      -0.19401000      -1.89422000
H        3.11361000      -0.46293000       0.97217000
H        2.66369000       1.85237000      -0.77446000
H        1.46514000       2.22513000       1.32537000
H        2.90169000       3.24299000       1.24291000
H        2.49394000       0.81741000       2.81247000
H        2.68179000       2.32706000       3.36999000
H        4.94600000       2.51990000      -0.03576000
H        5.00938000       0.95758000      -0.84884000
H        4.73670000       1.19795000       1.95762000
18
Properties=species:S:1:pos:R:3 energy=-1784.42 pbc="F F F"
C        1.34299000      -0.16350000      -0.35808000
C        2.74560000       0.11557000       0.08214000
C        3.59392000      -1.02339000       0.59111000
N        3.85936000      -0.44435000      -0.72374000
C        4.91284000       0.58810000      -0.71968000
C        4.22021000       1.90664000      -0.39166000
C        3.07358000       1.51493000       0.52533000
H        0.98410000       0.62049000      -1.03276000
H        0.67800000      -0.19781000       0.51082000
H        1.25936000      -1.12006000      -0.88478000
H        3.17885000      -2.02423000       0.58467000
H        4.30436000      -0.84429000       1.39116000
H        5.69799000       0.36088000       0.01186000
H        5.39072000       0.64088000      -1.70343000
H        4.89335000       2.63521000       0.06917000
H        3.81887000       2.34833000      -1.31239000
H        3.38789000       1.52214000       1.57492000
H        2.23139000       2.20768000       0.42014000
14
Properties=species:S:1:pos:R:3 energy=-1442.1 pbc="F F F"
C        0.95243000      -0.06921000      -0.12603000
N        2.38370000       0.03031000       0.10649000
C        3.14035000      -1.20642000       0.04067000
C        3.07737000       1.23542000       0.13938000
O        4.29818000       1.31919000       0.22097000
C        2.32642000       2.47298000       0.06435000
C        1.72213000       3.51085000       0.00148000
H        0.42422000       0.84511000       0.15039000
H        0.54845000      -0.89342000       0.46940000
H        0.78657000      -0.27069000      -1.18845000
H        2.69548000      -1.93450000       0.72528000
H        4.18806000      -1.06099000       0.31654000
H        3.09380000      -1.59049000      -0.98272000
H        1.19883000       4.43643000      -0.05274000
16
Properties=species:S:1:pos:R:3 energy=-1558.01 pbc="F F F"
C        1.23153000       0.11465000       0.92672000
N        2.67756000       0.11323000       0.73968000
C        3.09894000       1.27512000      -0.07742000
C        4.63606000       1.30844000      -0.26064000
O        5.25615000       1.19710000       1.02093000
C        5.11112000       0.21235000      -1.12161000
C        5.50268000      -0.68419000      -1.81825000
H        0.94060000      -0.75910000       1.51796000
H        0.70249000       0.06491000      -0.03054000
H        0.90485000       1.00579000       1.47205000
H        2.94478000      -0.74293000       0.24764000
H        2.80190000       2.18850000       0.45253000
H        2.60104000       1.26231000      -1.05449000
H        4.93106000       2.27134000      -0.69074000
H        4.67599000       0.58312000       1.51515000
H        5.86176000      -1.48020000      -2.42938000
17
Properties=species:S:1:pos:R:3 energy=-1598.2 pbc="F F F"
C        1.03342000      -0.03329000      -0.06321000
N        2.47675000       0.16938000      -0.05766000
C        3.29034000      -1.05150000       0.00358000
C        3.93012000      -1.36737000      -1.35362000
O        4.95232000      -0.43190000      -1.68462000
C        3.00572000       1.42977000       0.00962000
N        4.24008000       1.77934000       0.06275000
H        0.48361000       0.91013000      -0.14625000
H        0.71685000      -0.52369000       0.86332000
H        0.74142000      -0.66248000      -0.91028000
H        2.66528000      -1.90182000       0.30180000
H        4.06185000      -0.94122000       0.77414000
H        3.18798000      -1.37102000      -2.15844000
H        4.39716000      -2.35645000      -1.31605000
H        4.51404000       0.43515000      -1.80084000
H        2.24246000       2.22739000      -0.00876000
H        4.85211000       0.95799000       0.09072000
16
Properties=species:S:1:pos:R:3 energy=-1622.31 pbc="F F F"
C        0.97877000       0.05168000      -0.57412000
C        2.16286000      -0.08695000       0.33473000
C        2.60206000      -1.45627000       0.99447000
C        3.93079000      -0.60381000       1.03630000
N        3.51111000      -0.22309000      -0.39178000
C        3.63311000       0.62666000       1.80893000
C        2.43278000       0.98148000       1.33478000
H        0.04276000       0.00932000      -0.00639000
H        0.94588000      -0.75463000      -1.31550000
H        0.99547000       1.00242000      -1.11905000
H        2.60693000      -2.34008000       0.34476000
H        2.14803000      -1.71416000       1.95617000
H        4.89667000      -1.09086000       1.16047000
H        3.89872000       0.66356000      -0.71021000
H        4.23566000       1.10272000       2.56412000
H        1.81302000       1.81904000       1.60860000
16
Properties=species:S:1:pos:R:3 energy=-1549.52 pbc="F F F"
C        1.06687000      -0.33309000      -0.38409000
N        2.40223000      -0.36040000       0.19190000
C        3.02009000      -1.67228000       0.31267000
C        3.08250000       0.83983000       0.34353000
O        2.57868000       1.93675000       0.07993000
C        4.52092000       0.79231000       0.86834000
O        5.09273000       2.09207000       0.97213000
H        0.60749000       0.65500000      -0.29741000
H        0.43546000      -1.05886000       0.13663000
H        1.13841000      -0.60042000      -1.44199000
H        2.32407000      -2.35038000       0.81565000
H        3.94787000      -1.64381000       0.88532000
H        3.23473000      -2.04810000      -0.69223000
H        5.14342000       0.20950000       0.18339000
H        4.53063000       0.34256000       1.86608000
H        4.39265000       2.71038000       0.67498000
18
Properties=species:S:1:pos:R:3 energy=-1659.66 pbc="F F F"
C        2.93118000      -0.87572000      -0.21723000
N        2.85336000       0.15802000       0.81126000
C        3.15993000       1.50195000       0.25776000
C        2.59830000       2.55591000       1.23717000
O        3.13185000       2.35783000       2.54957000
C        4.68331000       1.70080000       0.08727000
O        5.38326000       1.37833000       1.29198000
H        2.61602000      -1.83257000       0.20918000
H        3.95324000      -1.00075000      -0.59127000
H        2.26546000      -0.65597000      -1.05994000
H        3.58708000      -0.05009000       1.49725000
H        2.66041000       1.65160000      -0.70749000
H        1.50608000       2.49759000       1.29876000
H        2.86402000       3.56770000       0.91380000
H        2.74588000       1.50761000       2.84025000
H        4.91707000       2.73688000      -0.17950000
H        5.07521000       1.05727000      -0.70604000
H        4.94768000       1.89372000       2.00467000
16
Properties=species:S:1:pos:R:3 energy=-1530.41 pbc="F F F"
C        1.37519000       0.25220000       0.79902000
N        2.81901000       0.31599000       0.97464000
C        3.44582000       1.15949000      -0.05309000
C        4.97427000       1.02824000       0.00224000
O        5.35068000      -0.30945000      -0.33727000
C        5.58922000       2.02881000      -0.96040000
O        6.26870000       1.68607000      -1.92635000
H        0.94070000      -0.38322000       1.57645000
H        1.10591000      -0.17418000      -0.17314000
H        0.92345000       1.24500000       0.89179000
H        3.21697000      -0.62515000       0.89152000
H        3.14884000       2.20402000       0.09644000
H        3.10161000       0.84589000      -1.04730000
H        5.35924000       1.24835000       1.00402000
H        5.88132000      -0.24529000      -1.15815000
H        5.40814000       3.09286000      -0.73277000
17
Properties=species:S:1:pos:R:3 energy=-1556.97 pbc="F F F"
C        0.93911000      -0.17596000       0.03971000
N        2.39153000      -0.09487000       0.11518000
C        2.85346000       1.27325000      -0.14542000
C        4.37853000       1.38895000      -0.06618000
O        4.74489000       2.74232000      -0.35254000
N        6.14359000       2.84465000      -0.30614000
C        6.47380000       4.07106000      -0.52730000
H        0.61989000      -1.20216000       0.24746000
H        0.57280000       0.09562000      -0.95589000
H        0.46658000       0.47256000       0.78473000
H        2.79927000      -0.72768000      -0.57313000
H        2.41210000       1.96799000       0.58049000
H        2.52313000       1.60689000      -1.13761000
H        4.85025000       0.72547000      -0.80079000
H        4.73157000       1.12307000       0.93695000
H        7.53543000       4.36188000      -0.53170000
H        5.73474000       4.86772000      -0.71682000
18
Properties=species:S:1:pos:R:3 energy=-1771.04 pbc="F F F"
C        1.01707000      -0.06543000      -0.05047000
C        2.50727000       0.08344000      -0.01122000
C        3.42694000      -0.57894000      -1.06915000
N        4.50585000      -0.35079000      -0.00774000
C        3.38981000      -0.73639000       0.96637000
C        4.55424000       1.13282000       0.11085000
C        3.07239000       1.49130000       0.10475000
H        0.55677000       0.33855000       0.85707000
H        0.72645000      -1.11799000      -0.13002000
H        0.59069000       0.46304000      -0.90851000
H        3.57329000      -0.04219000      -2.01350000
H        3.23168000      -1.63410000      -1.29936000
H        3.18924000      -1.81376000       1.02448000
H        3.49951000      -0.35099000       1.98654000
H        5.04926000       1.43929000       1.03830000
H        5.08975000       1.57937000      -0.73402000
H        2.80388000       2.11757000      -0.75221000
H        2.76568000       1.98600000       1.03187000
17
Properties=species:S:1:pos:R:3 energy=-1590.29 pbc="F F F"
C        1.23914000      -0.13154000       0.49666000
N        2.45124000       0.20398000      -0.24865000
C        2.84932000      -0.86983000      -1.15749000
N        2.37644000       1.46055000      -0.90175000
C        1.27579000       1.79203000      -1.78998000
C        3.29164000       2.43616000      -0.53336000
O        3.30868000       3.59621000      -0.93112000
H        0.98031000       0.67422000       1.19264000
H        1.39965000      -1.03175000       1.10006000
H        0.38055000      -0.30933000      -0.16032000
H        3.03763000      -1.79293000      -0.59834000
H        3.78402000      -0.61345000      -1.66869000
H        2.08849000      -1.07905000      -1.91699000
H        0.95299000       0.91208000      -2.35195000
H        1.58260000       2.56995000      -2.49579000
H        0.44533000       2.17553000      -1.18942000
H        4.04287000       2.05867000       0.18122000
18
Properties=species:S:1:pos:R:3 energy=-1753.95 pbc="F F F"
C        1.45491000       3.01263000       0.20132000
N        2.80973000       2.58336000       0.43511000
C        3.42715000       1.68247000      -0.40741000
O        2.88982000       1.23679000      -1.41645000
C        4.83381000       1.28650000       0.04031000
C        5.39342000       0.16833000      -0.83757000
C        5.76916000       2.49407000       0.01737000
H        1.28211000       3.93711000       0.75745000
H        0.77484000       2.23406000       0.55761000
H        1.28667000       3.18293000      -0.86584000
H        3.22432000       2.77033000       1.33825000
H        4.75933000       0.90847000       1.06768000
H        5.48942000       0.48951000      -1.88065000
H        4.73568000      -0.70730000      -0.81933000
H        6.38144000      -0.14580000      -0.48605000
H        5.81215000       2.94082000      -0.98250000
H        6.78486000       2.20716000       0.30822000
H        5.43457000       3.27312000       0.71017000
15
Properties=species:S:1:pos:R:3 energy=-1439.99 pbc="F F F"
C        0.85018000      -0.04706000       0.08408000
N        2.20852000      -0.31584000      -0.36031000
C        2.61085000      -1.65144000      -0.38025000
O        1.87337000      -2.62929000      -0.31301000
N        3.19616000       0.66274000      -0.09934000
C        4.05524000       0.81322000      -1.28166000
C        2.98507000       1.81224000      -0.98828000
H        0.56022000       0.98405000      -0.13385000
H        0.78773000      -0.22856000       1.16209000
H        0.15587000      -0.72357000      -0.42409000
H        3.70199000      -1.76534000      -0.49346000
H        3.91639000       0.15839000      -2.13381000
H        5.08195000       1.09182000      -1.07751000
H        3.27973000       2.77220000      -0.58278000
H        2.12543000       1.83554000      -1.64695000
15
Properties=species:S:1:pos:R:3 energy=-1474.93 pbc="F F F"
C        1.19987000       0.50204000      -0.56994000
N        2.48205000       0.61208000       0.07134000
C        3.62595000       0.14083000      -0.53232000
O        3.67176000      -0.28987000      -1.67874000
N        4.71287000       0.23006000       0.34102000
C        5.71869000      -0.79475000       0.34804000
C        6.01595000       0.56518000      -0.16198000
H        0.84440000      -0.52726000      -0.46860000
H        1.28160000       0.75440000      -1.63070000
H        0.50346000       1.18390000      -0.07586000
H        2.53236000       0.70037000       1.07592000
H        5.56605000      -1.60077000      -0.35779000
H        6.04214000      -1.07128000       1.34116000
H        6.55166000       1.26326000       0.46558000
H        6.07493000       0.72672000      -1.23111000
17
Properties=species:S:1:pos:R:3 energy=-1624.5 pbc="F F F"
C        1.41819000      -0.28009000      -0.76052000
N        2.82230000      -0.12002000      -0.47259000
C        3.33303000       1.13453000      -0.25601000
O        2.63254000       2.14214000      -0.31981000
N        4.68711000       1.16959000       0.03981000
C        5.63154000       0.10113000      -0.25525000
C        5.27837000       2.46565000       0.32771000
H        1.24640000      -1.30833000      -1.08628000
H        1.11350000       0.41611000      -1.54646000
H        0.84418000      -0.07786000       0.14818000
H        3.23740000      -0.83846000       0.10010000
H        5.15090000      -0.83923000      -0.52810000
H        6.26025000      -0.06283000       0.62506000
H        6.25985000       0.41536000      -1.09502000
H        4.53731000       3.16950000       0.71651000
H        5.70336000       2.87046000      -0.59566000
H        6.06886000       2.34324000       1.07408000
15
Properties=species:S:1:pos:R:3 energy=-1520.69 pbc="F F F"
C        1.26544000       0.12293000       0.58554000
C        2.58713000      -0.14746000      -0.05229000
C        3.33847000       0.97064000      -0.71480000
N        3.80594000       0.41702000       0.56263000
C        4.66195000      -0.65707000       0.50074000
N        4.31798000      -1.77735000      -0.06235000
C        2.89821000      -1.57025000      -0.46119000
H        1.16103000       1.17161000       0.88313000
H        1.13589000      -0.49379000       1.48069000
H        0.45507000      -0.11115000      -0.11196000
H        2.97847000       1.98559000      -0.62010000
H        3.98659000       0.76760000      -1.55742000
H        5.64165000      -0.49013000       0.97406000
H        2.78728000      -1.70773000      -1.54140000
H        2.26836000      -2.29477000       0.06488000
15
Properties=species:S:1:pos:R:3 energy=-1467.24 pbc="F F F"
C        1.25141000       0.09267000       0.15370000
N        2.63949000       0.51510000       0.07093000
N        3.69253000      -0.37599000      -0.03359000
C        3.45572000      -1.63984000      -0.11630000
C        2.93127000       1.88479000       0.07527000
C        4.39599000       2.24325000      -0.01171000
O        2.07228000       2.76699000       0.13402000
H        0.58016000       0.93652000       0.33625000
H        1.13518000      -0.61555000       0.97922000
H        0.96692000      -0.37566000      -0.79356000
H        4.30797000      -2.33405000      -0.19302000
H        2.45771000      -2.10483000      -0.12342000
H        4.94954000       1.78784000       0.81379000
H        4.50732000       3.32935000       0.06271000
H        4.80562000       1.91855000      -0.97192000
17
Properties=species:S:1:pos:R:3 energy=-1581.3 pbc="F F F"
C        2.12747000      -1.05991000      -0.34666000
N        3.51874000      -0.64324000      -0.22054000
N        3.72149000       0.69236000      -0.15252000
C        4.95155000       1.09163000       0.01112000
C        6.15068000       0.18549000       0.15888000
C        5.19804000       2.59066000       0.08410000
O        5.15191000       3.01784000       1.43554000
H        2.06506000      -2.15276000      -0.33516000
H        1.69478000      -0.69945000      -1.28577000
H        1.52989000      -0.68003000       0.48752000
H        4.05906000      -1.07280000      -0.97504000
H        5.92587000      -0.65192000       0.82583000
H        6.99366000       0.73960000       0.58193000
H        6.43688000      -0.19433000      -0.82521000
H        4.43578000       3.12931000      -0.48670000
H        6.18069000       2.82865000      -0.33163000
H        4.25971000       2.78716000       1.75709000
17
Properties=species:S:1:pos:R:3 energy=-1598.25 pbc="F F F"
C        2.75415000      -0.71983000       0.61159000
N        2.97949000       0.23276000      -0.47210000
N        3.32591000       1.51282000       0.03161000
C        2.25703000       2.43906000       0.37230000
C        4.62745000       2.00498000      -0.10469000
C        5.66540000       1.02992000      -0.60569000
O        4.93188000       3.17063000       0.15560000
H        2.53462000      -1.70499000       0.18922000
H        1.90717000      -0.42518000       1.23921000
H        3.64335000      -0.82006000       1.24236000
H        2.13485000       0.31519000      -1.04184000
H        1.37725000       1.89653000       0.72893000
H        1.99979000       3.01780000      -0.51982000
H        2.59501000       3.12581000       1.15389000
H        5.66964000       0.12159000       0.00210000
H        6.65602000       1.48854000      -0.52983000
H        5.47444000       0.78722000      -1.65445000
17
Properties=species:S:1:pos:R:3 energy=-1581.66 pbc="F F F"
C        2.34984000      -1.02954000      -1.13666000
N        3.67569000      -0.75125000      -0.59603000
N        3.91672000       0.54916000      -0.29613000
C        5.10039000       0.83563000       0.15650000
C        6.23959000      -0.11845000       0.37788000
O        5.46177000       2.10640000       0.48331000
C        4.47617000       3.11881000       0.25476000
H        2.27799000      -2.08446000      -1.41716000
H        2.15987000      -0.42891000      -2.03175000
H        1.57368000      -0.81530000      -0.39525000
H        3.83211000      -1.36176000       0.20948000
H        5.92500000      -0.93365000       1.03467000
H        7.08433000       0.39059000       0.85159000
H        6.57034000      -0.52146000      -0.58298000
H        4.93096000       4.08722000       0.48091000
H        3.62084000       2.97322000       0.92133000
H        4.16110000       3.12492000      -0.79344000
15
Properties=species:S:1:pos:R:3 energy=-1433.09 pbc="F F F"
C        7.13218000      -0.15142000       1.13282000
N        6.16867000       0.91790000       0.89212000
N        5.18925000       0.62085000      -0.00025000
C        4.38587000       1.60415000      -0.24103000
O        3.30981000       1.55715000      -1.08201000
C        3.09581000       0.36043000      -1.76750000
C        1.88330000       0.00568000      -2.19536000
H        7.89674000       0.19049000       1.83630000
H        7.63303000      -0.43860000       0.20315000
H        6.64061000      -1.03213000       1.55759000
H        5.78016000       1.21185000       1.79257000
H        4.45550000       2.60989000       0.20750000
H        3.98934000      -0.22585000      -1.94233000
H        1.01774000       0.63130000      -2.00682000
H        1.73704000      -0.92150000      -2.73836000
16
Properties=species:S:1:pos:R:3 energy=-1548.81 pbc="F F F"
C        1.49661000       2.10466000       1.18096000
N        2.68115000       2.18983000       0.67911000
O        3.24491000       0.90641000       0.64804000
C        4.57738000       1.01259000       0.10231000
C        5.66864000       1.58209000       1.04414000
C        6.63343000       0.53696000       0.45444000
C        5.39458000      -0.30303000       0.09326000
H        0.87977000       3.00956000       1.28985000
H        1.05307000       1.15184000       1.51681000
H        4.56631000       1.49269000      -0.88636000
H        5.45704000       1.44223000       2.11044000
H        5.94717000       2.62468000       0.87004000
H        7.19190000       0.89567000      -0.41773000
H        7.32953000       0.07890000       1.16128000
H        5.44606000      -0.82123000      -0.86793000
H        5.09896000      -1.01881000       0.86889000
16
Properties=species:S:1:pos:R:3 energy=-1640.68 pbc="F F F"
C        1.09352000       0.07142000      -0.39964000
C        2.36961000      -0.17303000       0.32875000
C        3.50653000      -0.99283000      -0.22145000
C        3.69102000      -1.21513000      -1.65013000
C        3.86407000      -0.07250000      -2.32096000
C        3.78219000       1.06984000      -1.35408000
N        3.63466000       0.48326000       0.00612000
H        0.68837000       1.05084000      -0.12533000
H        0.35636000      -0.68509000      -0.11046000
H        1.18181000       0.03601000      -1.48842000
H        2.17810000      -0.26294000       1.39423000
H        4.08678000      -1.60846000       0.45575000
H        3.69599000      -2.20054000      -2.09544000
H        4.02313000       0.02830000      -3.38257000
H        4.71290000       1.64598000      -1.38772000
H        2.95564000       1.74641000      -1.59474000
18
Properties=species:S:1:pos:R:3 energy=-1705.29 pbc="F F F"
C        2.04849000      -0.48716000      -1.37145000
O        2.24533000       0.05725000      -0.07455000
C        3.06477000       1.24457000      -0.01119000
C        2.41676000       2.57255000      -0.48800000
C        3.17495000       3.27623000       0.66003000
C        3.15613000       1.91893000       1.39216000
N        4.46174000       1.67013000       2.00220000
H        1.42872000      -1.38289000      -1.28228000
H        3.00983000      -0.76355000      -1.81345000
H        1.53588000       0.23601000      -2.01164000
H        4.04117000       1.06724000      -0.48501000
H        1.32575000       2.59999000      -0.38725000
H        2.68981000       2.89733000      -1.49536000
H        4.16189000       3.64765000       0.35700000
H        2.63047000       4.08713000       1.15173000
H        2.29490000       1.75732000       2.04822000
H        5.25972000       1.80170000       1.38450000
H        4.54659000       0.71750000       2.36237000
18
Properties=species:S:1:pos:R:3 energy=-1703.61 pbc="F F F"
C        1.55117000      -0.59580000      -0.99463000
O        2.27382000      -0.08592000       0.11715000
C        3.03276000       1.13887000      -0.08072000
C        4.26902000       0.86934000      -0.93599000
C        2.22931000       2.41824000      -0.44475000
N        2.99287000       3.18179000       0.56422000
C        3.35044000       1.91054000       1.23156000
H        0.91542000      -1.41374000      -0.64545000
H        2.24030000      -0.98843000      -1.74654000
H        0.91559000       0.17703000      -1.43471000
H        4.91139000       1.75320000      -1.01562000
H        3.98958000       0.57977000      -1.95392000
H        4.86844000       0.06080000      -0.50431000
H        1.15775000       2.36265000      -0.21888000
H        2.34461000       2.78198000      -1.47059000
H        3.79950000       3.67169000       0.17663000
H        4.38493000       1.86069000       1.58583000
H        2.69012000       1.66311000       2.07156000
16
Properties=species:S:1:pos:R:3 energy=-1504.16 pbc="F F F"
C        2.19595000      -0.83276000      -1.05766000
O        1.88451000       0.47535000      -0.59763000
C        3.05632000       1.19657000      -0.14536000
C        3.54072000       2.30718000      -1.04584000
N        2.87684000       2.56203000      -2.33629000
C        2.82076000       2.63394000       0.23657000
O        3.64636000       3.15154000       1.29407000
H        1.27754000      -1.29917000      -1.42333000
H        2.59577000      -1.43629000      -0.23739000
H        2.91880000      -0.78593000      -1.87775000
H        3.79240000       0.66266000       0.44837000
H        4.61267000       2.48947000      -1.05658000
H        1.91206000       2.22410000      -2.27843000
H        3.30577000       1.98933000      -3.06338000
H        1.80041000       2.99807000       0.17597000
H        3.71485000       4.11969000       1.22273000
15
Properties=species:S:1:pos:R:3 energy=-1505.88 pbc="F F F"
C        0.99746000       0.02319000       0.53891000
C        2.32474000      -0.01412000      -0.13595000
C        2.62571000       0.94704000      -1.26672000
C        4.02338000       1.29103000      -1.61802000
C        4.52859000      -0.08178000      -1.88585000
N        3.63854000      -1.01517000      -1.77564000
N        2.39279000      -0.48861000      -1.51488000
H        0.98282000       0.81672000       1.29282000
H        0.80377000      -0.92847000       1.04430000
H        0.17770000       0.20782000      -0.16383000
H        3.11370000      -0.31178000       0.54463000
H        1.87029000       1.62879000      -1.62636000
H        4.57467000       1.74950000      -0.79422000
H        4.10498000       1.90042000      -2.52084000
H        5.58315000      -0.26402000      -2.13257000
18
Properties=species:S:1:pos:R:3 energy=-1776.84 pbc="F F F"
C        1.01707000       0.00185000       0.07772000
C        2.53074000       0.01038000      -0.07315000
C        3.22212000       1.04475000      -1.02135000
C        2.86829000       0.06683000      -2.17726000
C        3.23437000      -0.97798000      -1.07533000
N        4.68058000      -0.72490000      -0.85453000
C        4.69565000       0.74553000      -0.80384000
H        0.69495000       0.84795000       0.69431000
H        0.69241000      -0.91713000       0.57727000
H        0.48413000       0.06746000      -0.87425000
H        2.94884000      -0.01554000       0.94455000
H        2.86398000       2.07154000      -1.05557000
H        3.50915000       0.09595000      -3.06569000
H        1.83026000       0.06927000      -2.52318000
H        2.90156000      -2.01047000      -1.16401000
H        5.03294000      -1.09950000       0.02614000
H        5.32537000       1.15904000      -1.59764000
H        5.05019000       1.11244000       0.16519000
18
Properties=species:S:1:pos:R:3 energy=-1698.26 pbc="F F F"
C        1.17942000       0.34181000      -0.10558000
O        2.58354000       0.34377000       0.11128000
C        3.15929000       1.61068000      -0.21080000
C        4.62565000       1.54717000       0.07354000
C        5.61786000       1.31336000      -1.04338000
N        5.49456000       2.62306000      -0.40889000
C        6.58747000       2.92612000       0.51265000
H        0.78366000      -0.62827000       0.20904000
H        0.95808000       0.48216000      -1.16744000
H        0.69486000       1.12412000       0.48755000
H        2.70279000       2.38589000       0.41471000
H        2.96285000       1.84442000      -1.26476000
H        4.83083000       1.12461000       1.04996000
H        5.25066000       1.24768000      -2.06028000
H        6.49479000       0.71224000      -0.83669000
H        6.23638000       3.62337000       1.28099000
H        7.40094000       3.41455000      -0.03249000
H        7.00529000       2.04915000       1.02266000
18
Properties=species:S:1:pos:R:3 energy=-1710.04 pbc="F F F"
C        1.57762000      -0.13420000       0.29169000
O        2.98178000       0.06020000       0.38707000
C        3.35291000       1.38366000      -0.01334000
C        4.86429000       1.53230000       0.11485000
N        5.47323000       0.97346000       1.34421000
C        5.69908000       1.45690000      -1.14196000
C        5.49774000       2.77715000      -0.45720000
H        1.34705000      -1.15089000       0.62086000
H        1.24481000      -0.01835000      -0.74424000
H        1.04729000       0.57094000       0.93913000
H        2.86467000       2.11148000       0.64531000
H        3.02466000       1.56171000      -1.04446000
H        5.19763000      -0.01162000       1.39538000
H        5.03933000       1.39668000       2.16368000
H        5.20099000       1.28962000      -2.08948000
H        6.68034000       0.99896000      -1.07864000
H        6.34503000       3.20861000       0.06450000
H        4.86375000       3.50881000      -0.94401000
16
Properties=species:S:1:pos:R:3 energy=-1563.37 pbc="F F F"
C        4.22448000      -0.97176000      -0.32141000
O        3.13308000      -0.05858000      -0.29143000
C        3.43296000       1.26590000      -0.13764000
C        4.62967000       1.86000000      -0.00233000
C        4.83803000       3.29992000       0.14910000
C        4.61498000       3.93922000       1.49498000
N        5.96128000       3.71637000       0.98315000
H        3.81699000      -1.97939000      -0.44504000
H        4.78346000      -0.94644000       0.61963000
H        4.88192000      -0.76667000      -1.17275000
H        2.50883000       1.83471000      -0.13549000
H        5.53477000       1.25984000      -0.00893000
H        4.65855000       3.89520000      -0.74032000
H        4.31641000       3.31787000       2.33037000
H        4.26882000       4.96419000       1.52967000
H        6.36672000       4.58472000       0.63096000
20
Properties=species:S:1:pos:R:3 energy=-1853.5 pbc="F F F"
C        1.85880000       1.03769000      -1.89553000
O        3.15693000       1.34085000      -1.40403000
C        3.28177000       1.02373000      -0.01749000
C        4.68131000       1.39664000       0.45956000
C        5.02154000       2.88537000       0.30740000
C        4.10222000       3.83979000       1.07063000
N        4.09586000       3.55691000       2.50213000
H        1.84560000       1.22740000      -2.97199000
H        1.11381000       1.68083000      -1.41822000
H        1.61458000      -0.01499000      -1.72355000
H        3.13178000      -0.05367000       0.11785000
H        2.51378000       1.55124000       0.55851000
H        5.41479000       0.83028000      -0.12861000
H        4.80384000       1.08639000       1.50319000
H        5.00251000       3.15717000      -0.75484000
H        6.05599000       3.03769000       0.64173000
H        3.07994000       3.78263000       0.68550000
H        4.44537000       4.86842000       0.91304000
H        5.04349000       3.64741000       2.86976000
H        3.53894000       4.26386000       2.98145000
18
Properties=species:S:1:pos:R:3 energy=-1716.02 pbc="F F F"
C        1.23892000      -0.13202000       0.67041000
O        2.50693000      -0.20284000       0.02553000
C        3.16401000       0.99817000       0.04472000
C        4.50236000       1.10462000       0.02936000
C        5.41276000      -0.09389000      -0.00201000
C        5.17449000       2.45019000       0.00051000
N        5.98591000       2.66094000       1.19067000
H        0.79209000      -1.13026000       0.65157000
H        0.56858000       0.55351000       0.14059000
H        1.35152000       0.17557000       1.71583000
H        2.50885000       1.86123000       0.04262000
H        4.86391000      -1.03974000      -0.04929000
H        6.04045000      -0.12618000       0.89422000
H        6.06424000      -0.05017000      -0.88115000
H        4.43849000       3.25926000      -0.07480000
H        5.81087000       2.51882000      -0.88896000
H        5.38133000       2.62907000       2.00995000
H        6.38036000       3.59886000       1.16299000
14
Properties=species:S:1:pos:R:3 energy=-1442.27 pbc="F F F"
C        2.49796000      -0.84892000      -0.86491000
O        2.35016000       0.02829000       0.24537000
C        2.89401000       1.33855000       0.00000000
C        2.36662000       2.21371000       1.10796000
C        1.62208000       3.31499000       0.93893000
C        4.33801000       1.33855000       0.00000000
N        5.48902000       1.33855000       0.00000000
H        2.00230000      -1.79312000      -0.62195000
H        3.55375000      -1.05734000      -1.05959000
H        2.02487000      -0.42776000      -1.75790000
H        2.51144000       1.70079000      -0.96263000
H        2.60501000       1.89502000       2.12237000
H        1.33798000       3.67558000      -0.04591000
H        1.27035000       3.88217000       1.79681000
20
Properties=species:S:1:pos:R:3 energy=-1855.07 pbc="F F F"
C        1.28660000       0.04319000       0.06729000
O        2.66112000       0.38335000       0.16302000
C        2.99637000       1.78117000       0.02453000
C        2.54600000       2.34383000      -1.33210000
C        2.38874000       2.60401000       1.17026000
C        4.54843000       1.85364000       0.14811000
N        5.23989000       1.07755000      -0.89039000
H        1.20169000      -1.04113000       0.18629000
H        0.87772000       0.30256000      -0.91236000
H        0.70363000       0.51171000       0.86378000
H        2.83676000       1.68229000      -2.15500000
H        2.97107000       3.33719000      -1.51208000
H        1.45591000       2.44210000      -1.38126000
H        2.61647000       2.14870000       2.14050000
H        1.29755000       2.65745000       1.09407000
H        2.76793000       3.63174000       1.16890000
H        4.84906000       1.44372000       1.12034000
H        4.89434000       2.89207000       0.10085000
H        4.78798000       0.15938000      -0.92325000
H        6.20047000       0.90992000      -0.59776000
16
Properties=species:S:1:pos:R:3 energy=-1588.48 pbc="F F F"
C        1.04797000      -0.26411000       0.01247000
O        2.44708000      -0.03086000       0.01580000
C        2.89401000       1.33855000       0.00000000
C        2.40709000       2.05901000      -1.26759000
C        2.40710000       2.08646000       1.25107000
C        4.33801000       1.33855000       0.00000000
N        5.48902000       1.33855000       0.00000000
H        0.89004000      -1.34654000       0.02961000
H        0.57993000       0.12416000      -0.89515000
H        0.57005000       0.15425000       0.90133000
H        2.65597000       1.48109000      -2.16549000
H        2.85763000       3.05349000      -1.36675000
H        1.32013000       2.19150000      -1.26626000
H        2.65595000       1.52856000       2.16196000
H        1.31988000       2.21894000       1.24733000
H        2.85744000       3.08327000       1.32874000
20
Properties=species:S:1:pos:R:3 energy=-1857.21 pbc="F F F"
C        1.27079000       2.17591000       0.49707000
O        2.67170000       2.20956000       0.73355000
C        3.38594000       1.42772000      -0.23519000
C        4.90612000       1.47119000       0.06483000
C        5.19192000       0.93560000       1.47611000
C        5.66628000       0.63888000      -0.97250000
N        5.38509000       2.86396000      -0.02152000
H        0.78085000       2.80936000       1.24136000
H        0.89137000       1.15488000       0.60399000
H        1.03804000       2.56253000      -0.49933000
H        3.18351000       1.82678000      -1.23729000
H        3.02468000       0.39226000      -0.19514000
H        4.71072000       1.54652000       2.24958000
H        6.26677000       0.92247000       1.68944000
H        4.82128000      -0.09017000       1.58638000
H        5.49445000       1.01356000      -1.98941000
H        5.34428000      -0.40834000      -0.94768000
H        6.74681000       0.65723000      -0.78959000
H        4.75498000       3.43684000       0.54631000
H        6.30379000       2.94228000       0.41150000
12
Properties=species:S:1:pos:R:3 energy=-1279.69 pbc="F F F"
C        1.01210000      -0.07736000       0.01268000
O        2.43135000      -0.00918000       0.01255000
C        2.89401000       1.33855000       0.00000000
C        4.33801000       1.33855000       0.00000000
C        5.52817000       1.33855000       0.00000000
C        7.06260000       1.33477000       0.00003000
N        8.22216000       1.34260000      -0.00004000
H        0.71787000      -1.13027000       0.02270000
H        0.60554000       0.39022000      -0.88928000
H        0.60486000       0.40750000       0.90516000
H        2.51303000       1.86183000       0.88422000
H        2.51307000       1.84528000      -0.89383000
16
Properties=species:S:1:pos:R:3 energy=-1594.02 pbc="F F F"
C        1.50499000      -0.30894000       0.36821000
O        2.89154000       0.00016000       0.29214000
C        3.11101000       1.40421000       0.18185000
C        4.61423000       1.66207000       0.11270000
C        5.37530000       1.13661000       1.33153000
C        5.02523000       1.87303000       2.55230000
N        4.74358000       2.46993000       3.50820000
H        1.39835000      -1.39425000       0.44510000
H        0.98708000       0.03063000      -0.53393000
H        1.05888000       0.15034000       1.25553000
H        2.66391000       1.92043000       1.03874000
H        2.63668000       1.77537000      -0.73394000
H        4.79220000       2.73677000      -0.01346000
H        5.01527000       1.15686000      -0.77484000
H        6.45058000       1.24711000       1.14740000
H        5.19144000       0.06587000       1.47255000
17
Properties=species:S:1:pos:R:3 energy=-1575.19 pbc="F F F"
C        4.39065000      -0.09667000      -2.09779000
O        4.45483000      -0.61184000      -0.77325000
C        4.27848000       0.39926000       0.20946000
C        5.46063000       1.36004000       0.30750000
C        6.80473000       0.76125000       0.65578000
N        5.24742000       2.62168000       0.05753000
N        6.32488000       3.43323000       0.12947000
H        4.40918000      -0.94084000      -2.79286000
H        5.25779000       0.53747000      -2.30570000
H        3.46427000       0.46423000      -2.25602000
H        4.17818000      -0.09751000       1.18038000
H        3.34896000       0.95064000       0.02707000
H        6.68242000      -0.26752000       1.00560000
H        7.28768000       1.33830000       1.44883000
H        7.43852000       0.75554000      -0.23567000
H        6.01799000       4.40853000       0.08415000
H        6.92797000       3.31143000      -0.68787000
14
Properties=species:S:1:pos:R:3 energy=-1414.1 pbc="F F F"
C        1.81360000      -0.40497000      -0.94764000
O        3.15263000       0.05517000      -0.81143000
C        3.33605000       1.34662000      -0.35177000
C        2.37173000       2.22032000      -0.01423000
C        4.76043000       1.82155000      -0.21612000
N        5.68474000       0.88629000      -0.57213000
O        5.08634000       2.93514000       0.17380000
H        1.84823000      -1.43331000      -1.31958000
H        1.26348000       0.19786000      -1.67761000
H        1.30150000      -0.41482000       0.02003000
H        1.31607000       1.99173000      -0.07025000
H        2.62436000       3.21783000       0.33818000
H        5.39593000      -0.02859000      -0.89179000
H        6.66428000       1.12109000      -0.51160000
16
Properties=species:S:1:pos:R:3 energy=-1499.97 pbc="F F F"
C        3.60933000      -1.26426000       0.31148000
O        3.07905000      -0.03418000       0.79235000
C        3.35678000       1.05277000      -0.07859000
C        4.82926000       1.44378000      -0.11730000
C        5.46554000       1.89289000       1.17520000
N        5.46148000       1.36986000      -1.25304000
O        6.79746000       1.76298000      -1.11706000
H        3.24574000      -2.06781000       0.95819000
H        4.70250000      -1.25501000       0.35787000
H        3.27472000      -1.46234000      -0.71163000
H        2.79761000       1.92015000       0.28800000
H        2.99183000       0.83263000      -1.08842000
H        4.74085000       1.85735000       1.99274000
H        5.82505000       2.92003000       1.07030000
H        6.30260000       1.23332000       1.42095000
H        7.13878000       1.66776000      -2.02607000
20
Properties=species:S:1:pos:R:3 energy=-1840.83 pbc="F F F"
C        1.66255000      -0.76108000      -0.61258000
O        2.94326000      -0.24412000      -0.27628000
C        2.93820000       1.18773000      -0.24075000
C        4.35265000       1.67856000       0.10860000
N        4.46515000       3.14095000       0.27444000
C        5.78670000       3.47479000       0.81398000
C        4.25671000       3.85008000      -0.98932000
H        1.71782000      -1.85276000      -0.59990000
H        1.37263000      -0.43774000      -1.61667000
H        0.91396000      -0.44017000       0.11821000
H        2.22334000       1.52811000       0.51728000
H        2.62695000       1.56167000      -1.22329000
H        5.06165000       1.30877000      -0.64391000
H        4.63634000       1.18521000       1.04779000
H        5.93790000       2.99673000       1.78847000
H        5.87388000       4.55432000       0.98069000
H        6.59749000       3.16190000       0.14567000
H        3.23443000       3.71344000      -1.35581000
H        4.95395000       3.52197000      -1.76863000
H        4.38372000       4.92997000      -0.84943000
19
Properties=species:S:1:pos:R:3 energy=-1724.96 pbc="F F F"
C        3.38791000       1.56869000       3.14676000
O        4.13784000       2.37249000       2.24681000
C        3.57288000       2.42001000       0.91744000
C        2.33635000       3.34802000       0.87123000
N        2.62094000       4.70589000       1.34500000
C        4.67321000       2.91303000      -0.04662000
N        5.78701000       1.95159000      -0.11432000
H        3.95170000       1.48643000       4.08062000
H        3.23976000       0.56229000       2.74306000
H        2.42418000       2.03270000       3.37306000
H        3.27050000       1.40823000       0.61585000
H        1.54414000       2.93005000       1.50110000
H        1.94406000       3.40006000      -0.15005000
H        3.14303000       4.63220000       2.22145000
H        1.74734000       5.18192000       1.56426000
H        5.08004000       3.86966000       0.30036000
H        4.26906000       3.05240000      -1.05462000
H        6.08583000       1.77494000       0.84815000
H        6.57681000       2.40020000      -0.57529000
19
Properties=species:S:1:pos:R:3 energy=-1726.96 pbc="F F F"
C        3.45864000      -1.31555000      -0.70907000
O        4.26314000      -0.32582000      -0.08150000
C        3.75364000       0.99250000      -0.31414000
C        4.65224000       2.01207000       0.41214000
N        6.06880000       1.89279000      -0.01427000
C        4.13434000       3.45156000       0.19392000
N        5.07308000       4.44680000       0.72563000
H        3.89057000      -2.29694000      -0.49516000
H        3.44619000      -1.16745000      -1.79321000
H        2.43900000      -1.28844000      -0.31269000
H        2.72944000       1.05924000       0.07181000
H        3.74092000       1.18973000      -1.39286000
H        4.63793000       1.78587000       1.48578000
H        6.12278000       2.06276000      -1.01858000
H        6.31485000       0.90307000       0.09099000
H        3.15669000       3.58104000       0.67049000
H        4.00609000       3.64647000      -0.87739000
H        6.00505000       4.14145000       0.41859000
H        5.12325000       4.33214000       1.73841000
18
Properties=species:S:1:pos:R:3 energy=-1649.18 pbc="F F F"
C        3.21632000      -1.00991000       0.24788000
O        2.57336000      -0.03606000       1.05963000
C        2.88527000       1.29894000       0.63573000
C        1.94781000       2.30209000       1.37170000
N        1.86741000       2.12167000       2.83394000
O        4.27556000       1.60924000       0.73508000
C        4.78232000       1.63006000       2.06053000
H        2.89167000      -1.99963000       0.58034000
H        4.30287000      -0.95102000       0.35570000
H        2.93357000      -0.88821000      -0.80254000
H        2.63753000       1.37817000      -0.43079000
H        0.93250000       2.15562000       0.98339000
H        2.25460000       3.33076000       1.15687000
H        1.75067000       1.12008000       3.00786000
H        1.02727000       2.57875000       3.18266000
H        5.87486000       1.62860000       2.00128000
H        4.47412000       0.74696000       2.62813000
H        4.48375000       2.54806000       2.57281000
16
Properties=species:S:1:pos:R:3 energy=-1485.73 pbc="F F F"
C        3.90618000      -1.14802000       0.02323000
O        3.09547000      -0.13591000       0.60966000
C        3.17546000       1.09632000      -0.09388000
C        4.47856000       1.81148000       0.17026000
N        5.29109000       2.09527000      -0.79647000
O        6.41051000       2.74956000      -0.26187000
C        7.28157000       3.09769000      -1.33180000
H        3.73914000      -2.07875000       0.57207000
H        4.96596000      -0.88844000       0.10006000
H        3.63004000      -1.30778000      -1.02342000
H        2.37407000       1.73943000       0.28325000
H        3.01722000       0.94680000      -1.16744000
H        4.69778000       2.07505000       1.21950000
H        8.16775000       3.58157000      -0.91278000
H        6.78436000       3.79777000      -2.01021000
H        7.59326000       2.20090000      -1.87612000
18
Properties=species:S:1:pos:R:3 energy=-1658.1 pbc="F F F"
C        1.56613000       0.09303000       0.79313000
O        2.81113000       0.22072000       0.11671000
C        3.35702000       1.54155000       0.27485000
C        4.70537000       1.57486000      -0.45256000
O        4.49715000       1.29758000      -1.84974000
C        5.43260000       2.92036000      -0.30903000
N        4.67471000       4.02979000      -0.89954000
H        1.18935000      -0.92024000       0.63087000
H        0.83766000       0.80554000       0.39480000
H        1.69859000       0.24870000       1.86803000
H        3.48899000       1.76021000       1.34010000
H        2.65509000       2.25626000      -0.16900000
H        5.34753000       0.77223000      -0.07138000
H        3.87762000       0.54108000      -1.85955000
H        6.39541000       2.85811000      -0.82883000
H        5.62977000       3.13783000       0.74545000
H        4.40626000       3.73391000      -1.84379000
H        5.29745000       4.82638000      -1.02738000
17
Properties=species:S:1:pos:R:3 energy=-1569.24 pbc="F F F"
C        3.50186000       3.10525000      -4.14471000
O        2.65141000       2.85627000      -3.02094000
C        3.24375000       2.94557000      -1.80535000
N        4.48764000       3.24243000      -1.63261000
N        4.84854000       3.27931000      -0.31867000
C        4.67544000       4.58504000       0.33851000
C        6.22175000       2.81584000      -0.07320000
H        2.89893000       3.00451000      -5.05147000
H        4.31013000       2.36853000      -4.18417000
H        3.90068000       4.12344000      -4.10707000
H        2.51418000       2.73101000      -1.00726000
H        3.63703000       4.92289000       0.24687000
H        5.32205000       5.34895000      -0.10804000
H        4.89292000       4.51709000       1.41022000
H        6.35636000       1.80957000      -0.48510000
H        6.42947000       2.75074000       1.00064000
H        6.96060000       3.47630000      -0.53885000
13
Properties=species:S:1:pos:R:3 energy=-1276.14 pbc="F F F"
C        1.02900000      -0.18307000      -0.41507000
O        2.28835000       0.07384000       0.21201000
C        2.90818000       1.24749000      -0.05361000
N        2.44700000       2.44087000      -0.26621000
N        1.11264000       2.65115000      -0.14276000
C        4.34399000       1.18546000      -0.05112000
C        5.54469000       1.12952000      -0.04706000
H        0.95276000      -1.26279000      -0.57415000
H        0.95027000       0.30369000      -1.39219000
H        0.21513000       0.11885000       0.24939000
H        0.90894000       3.63686000      -0.32602000
H        0.80802000       2.48172000       0.81959000
H        6.60853000       1.08464000      -0.04396000
16
Properties=species:S:1:pos:R:3 energy=-1554.6 pbc="F F F"
C        1.61614000       2.43437000      -1.28036000
O        2.97797000       2.40606000      -0.85368000
C        3.42397000       1.17221000      -0.48718000
O        2.72759000       0.16431000      -0.52964000
N        4.74437000       1.18654000      -0.07008000
C        5.40658000      -0.07053000       0.21791000
C        5.58394000       2.36935000      -0.14850000
H        1.38629000       3.45200000      -1.60941000
H        0.95191000       2.18123000      -0.44809000
H        1.45797000       1.75639000      -2.12524000
H        4.69266000      -0.88780000       0.34665000
H        5.98966000       0.03495000       1.13751000
H        6.07558000      -0.31228000      -0.61363000
H        4.99763000       3.29144000      -0.15314000
H        6.17278000       2.31675000      -1.06918000
H        6.25570000       2.39114000       0.71462000
14
Properties=species:S:1:pos:R:3 energy=-1436.75 pbc="F F F"
C        2.87492000      -0.93423000       0.78254000
O        2.82682000      -0.19068000      -0.43048000
N        3.38063000       1.06716000      -0.20091000
C        2.67020000       2.17340000       0.16148000
C        3.55855000       3.22503000       0.24941000
C        4.84031000       2.72617000      -0.10400000
C        4.69244000       1.38592000      -0.39630000
H        2.43595000      -1.91796000       0.59428000
H        2.28980000      -0.44283000       1.56697000
H        3.90897000      -1.07844000       1.11291000
H        1.60360000       2.11878000       0.32462000
H        3.31028000       4.24326000       0.52185000
H        5.76471000       3.28710000      -0.15478000
H        5.40075000       0.63861000      -0.72334000
13
Properties=species:S:1:pos:R:3 energy=-1307.37 pbc="F F F"
C        3.02362000      -0.90956000       0.71929000
O        2.68166000      -0.07942000      -0.38270000
N        3.26430000       1.16505000      -0.18792000
C        2.59912000       2.30437000       0.13867000
C        3.55259000       3.29585000       0.15884000
C        4.75114000       2.63917000      -0.19155000
N        4.57247000       1.33294000      -0.41115000
H        2.49097000      -1.85836000       0.60655000
H        2.71402000      -0.45589000       1.66708000
H        4.09750000      -1.12309000       0.73216000
H        1.53488000       2.30479000       0.31659000
H        3.40656000       4.34311000       0.37920000
H        5.74360000       3.05930000      -0.30081000
16
Properties=species:S:1:pos:R:3 energy=-1558.73 pbc="F F F"
C        4.32994000      -0.78449000      -0.99498000
O        5.52441000      -0.05194000      -0.75168000
N        5.17753000       1.27435000      -0.45646000
C        6.23592000       2.01996000      -0.28987000
C        7.64447000       1.47395000      -0.40358000
C        5.99506000       3.45787000       0.03034000
C        6.92018000       4.40538000       0.22021000
H        4.60139000      -1.80391000      -1.27956000
H        3.76494000      -0.32916000      -1.81503000
H        3.71773000      -0.82058000      -0.08920000
H        7.76930000       0.98999000      -1.37657000
H        7.80552000       0.73446000       0.38748000
H        8.41406000       2.23910000      -0.31456000
H        4.94208000       3.72103000       0.10629000
H        7.98664000       4.22980000       0.16083000
H        6.61066000       5.42167000       0.44668000
18
Properties=species:S:1:pos:R:3 energy=-1697.32 pbc="F F F"
C        2.11086000      -0.71356000      -1.43965000
O        3.03807000      -0.31576000      -0.43661000
N        3.55250000       0.94182000      -0.78419000
C        4.39434000       1.30868000       0.12548000
C        5.11489000       2.63038000       0.02084000
C        4.75033000       3.49423000       1.22160000
C        6.61569000       2.37698000      -0.04431000
H        1.71556000      -1.69778000      -1.17451000
H        2.60977000      -0.78388000      -2.41122000
H        1.28085000      -0.00216000      -1.49163000
H        4.61613000       0.67629000       1.00430000
H        4.79468000       3.13691000      -0.89759000
H        5.04781000       3.01827000       2.16257000
H        3.66839000       3.66009000       1.26591000
H        5.24138000       4.47093000       1.16283000
H        6.97377000       1.85954000       0.85252000
H        7.16657000       3.31824000      -0.13841000
H        6.86559000       1.74931000      -0.90651000
14
Properties=species:S:1:pos:R:3 energy=-1366.32 pbc="F F F"
C        1.93760000      -0.25216000      -0.59968000
O        2.32296000       0.61399000       0.46781000
N        2.88055000       1.79585000      -0.07753000
C        2.08739000       2.91779000      -0.07731000
C        0.79418000       2.95548000       0.26266000
C        4.24780000       1.80156000      -0.24611000
O        4.94130000       2.74673000      -0.60823000
H        2.82297000      -0.62974000      -1.11976000
H        1.27492000       0.25981000      -1.30526000
H        1.39772000      -1.10101000      -0.17052000
H        2.59316000       3.83237000      -0.38262000
H        0.25280000       2.07213000       0.58447000
H        0.24794000       3.89320000       0.23657000
H        4.69482000       0.81709000      -0.02719000
16
Properties=species:S:1:pos:R:3 energy=-1499.73 pbc="F F F"
C        4.02496000      -1.83228000      -0.48002000
O        5.06667000      -1.01333000       0.03696000
N        5.21295000       0.10032000      -0.80362000
C        6.14122000       0.89094000      -0.36776000
C        6.99279000       0.68261000       0.84975000
O        6.48710000       2.03590000      -1.01695000
C        5.74675000       2.33712000      -2.20423000
H        3.85611000      -2.65765000       0.21650000
H        4.31702000      -2.24273000      -1.45126000
H        3.09813000      -1.25783000      -0.57583000
H        6.38199000       0.34187000       1.68970000
H        7.47809000       1.61778000       1.14408000
H        7.76204000      -0.06163000       0.62696000
H        6.08800000       3.30732000      -2.57602000
H        4.67701000       2.40957000      -1.98549000
H        5.94033000       1.58357000      -2.97363000
15
Properties=species:S:1:pos:R:3 energy=-1424.56 pbc="F F F"
C        2.45829000      -0.77762000       0.29691000
O        3.23651000       0.01914000      -0.59202000
N        3.37243000       1.27975000       0.00885000
C        4.60776000       1.85349000      -0.21461000
N        5.63806000       1.13207000      -0.54921000
C        4.84826000       3.31820000      -0.09101000
C        3.96807000       4.17592000       0.43833000
H        2.37833000      -1.78214000      -0.12755000
H        1.45092000      -0.36126000       0.39795000
H        2.94134000      -0.85054000       1.27658000
H        2.58679000       1.89504000      -0.18509000
H        5.28106000       0.16841000      -0.59856000
H        5.81557000       3.65836000      -0.44885000
H        3.01092000       3.86988000       0.84181000
H        4.21722000       5.23071000       0.50497000
16
Properties=species:S:1:pos:R:3 energy=-1567.55 pbc="F F F"
N        1.08607000      -0.14788000      -0.04908000
C        2.50130000       0.12837000       0.00246000
C        3.33061000      -0.61238000      -1.08390000
C        4.42069000      -0.27147000       0.01073000
C        3.28873000      -0.77127000       0.99646000
O        4.48420000       1.18215000       0.12672000
C        3.08323000       1.53327000       0.11405000
H        0.56762000       0.19970000       0.75693000
H        0.84912000      -1.13626000      -0.12833000
H        3.44361000      -0.10153000      -2.04430000
H        3.12649000      -1.67447000      -1.25819000
H        5.38569000      -0.77601000      -0.00788000
H        3.08079000      -1.84682000       0.99910000
H        3.36064000      -0.41179000       2.02663000
H        2.86788000       2.16279000      -0.75328000
H        2.82147000       2.03711000       1.04802000
16
Properties=species:S:1:pos:R:3 energy=-1576.92 pbc="F F F"
N        1.08433000      -0.00020000       0.00675000
C        2.55194000      -0.00098000       0.07327000
C        3.18404000      -0.96161000      -0.98255000
C        4.68824000      -0.75203000      -0.84612000
C        4.68565000       0.78237000      -0.83256000
C        3.18036000       0.98846000      -0.95991000
O        2.76644000       0.02386000      -2.02818000
H        0.63480000       0.71649000       0.57150000
H        0.64925000      -0.88857000       0.24329000
H        2.96862000      -0.02279000       1.08346000
H        2.76479000      -1.95876000      -1.11775000
H        5.09058000      -1.17556000       0.07883000
H        5.24149000      -1.15092000      -1.70157000
H        5.23224000       1.19768000      -1.68371000
H        5.09106000       1.19137000       0.09769000
H        2.75605000       1.98619000      -1.07323000
14
Properties=species:S:1:pos:R:3 energy=-1411.07 pbc="F F F"
N        1.01493000      -0.28075000      -0.18534000
C        2.39637000       0.06051000       0.19602000
C        3.49302000      -0.74425000      -0.63555000
O        4.36101000       0.47537000      -0.27054000
C        3.06329000       1.14213000      -0.76703000
C        2.90678000       0.69981000      -2.18068000
C        3.20365000      -0.60370000      -2.09018000
H        0.32740000       0.40330000       0.12772000
H        0.70439000      -1.18114000       0.17753000
H        2.57359000       0.17332000       1.27033000
H        3.88950000      -1.68295000      -0.24922000
H        3.00538000       2.20192000      -0.52018000
H        2.62254000       1.28261000      -3.03894000
H        3.22429000      -1.35964000      -2.85476000
16
Properties=species:S:1:pos:R:3 energy=-1597.99 pbc="F F F"
N        0.98402000      -0.01868000       0.10418000
C        2.45098000      -0.02585000      -0.03330000
C        2.92532000      -1.24978000      -0.84839000
C        3.36706000      -0.67777000      -2.15802000
C        3.40421000       0.65714000      -2.13417000
C        2.98991000       1.20974000      -0.81126000
O        4.12613000       1.76744000      -0.16000000
H        0.70479000       0.80357000       0.63906000
H        0.69048000      -0.82906000       0.64656000
H        2.87720000      -0.06604000       0.97633000
H        2.13503000      -1.99525000      -0.98821000
H        3.77036000      -1.74146000      -0.35219000
H        3.62813000      -1.28551000      -3.01278000
H        3.69548000       1.28237000      -2.96536000
H        2.23479000       1.99515000      -0.91561000
H        4.87967000       1.18257000      -0.34933000
13
Properties=species:S:1:pos:R:3 energy=-1350.18 pbc="F F F"
N        1.03905000      -0.05578000      -0.02012000
C        2.37504000       0.04729000      -0.00635000
C        3.19666000       1.14925000       0.00056000
C        4.53329000       0.67750000       0.01307000
C        4.49199000      -0.69865000       0.01275000
O        5.48594000      -1.57828000       0.02116000
N        3.16891000      -1.06897000       0.00085000
H        0.44790000       0.77175000       0.00320000
H        0.52916000      -0.93251000       0.01413000
H        2.87687000       2.18218000      -0.00349000
H        5.43465000       1.27509000       0.02051000
H        5.12691000      -2.48021000       0.01539000
H        2.81915000      -2.01316000      -0.00440000
17
Properties=species:S:1:pos:R:3 energy=-1580.81 pbc="F F F"
N        0.99037000       0.03622000       0.14550000
C        2.43274000      -0.02990000      -0.04571000
C        3.11755000       1.03306000       0.84375000
C        4.15935000      -0.06334000       1.21378000
O        5.36061000      -0.09761000       0.40107000
C        3.03794000      -1.10292000       0.89983000
N        3.58176000      -2.21363000       0.11556000
H        0.49374000      -0.78682000      -0.19306000
H        0.54792000       0.83846000      -0.30269000
H        2.76861000      -0.03847000      -1.08951000
H        2.54353000       1.38568000       1.70881000
H        3.51411000       1.90190000       0.31030000
H        4.44642000      -0.04739000       2.27145000
H        5.07911000       0.16368000      -0.49088000
H        2.43572000      -1.39895000       1.76550000
H        4.51427000      -2.04387000      -0.26234000
H        2.98520000      -2.54848000      -0.63942000
16
Properties=species:S:1:pos:R:3 energy=-1520.28 pbc="F F F"
N        0.97416000       0.07295000       0.18193000
C        2.40298000       0.08732000      -0.09700000
C        3.10231000       1.07442000       0.85569000
C        4.13946000      -0.02842000       1.16013000
O        5.38908000       0.02689000       0.43533000
C        3.10800000      -1.07717000       0.65231000
O        3.64135000      -2.11717000      -0.19875000
H        0.50678000      -0.75502000      -0.19361000
H        0.47357000       0.86808000      -0.21402000
H        2.67718000       0.18707000      -1.15468000
H        2.53171000       1.38007000       1.74153000
H        3.50301000       1.97237000       0.37411000
H        4.35511000      -0.12364000       2.23006000
H        5.14010000       0.10673000      -0.50399000
H        2.53468000      -1.51929000       1.47622000
H        4.52237000      -2.29833000       0.17334000
14
Properties=species:S:1:pos:R:3 energy=-1427.73 pbc="F F F"
N        0.98904000       0.05585000       0.04637000
C        2.45296000       0.06701000       0.00641000
C        3.03351000       1.16284000       0.86815000
C        4.39352000       0.60192000       1.20219000
O        4.20774000      -0.81066000       1.31903000
C        3.07383000      -1.16855000       0.63809000
O        2.68085000      -2.31809000       0.51078000
H        0.66151000      -0.84286000      -0.31759000
H        0.61877000       0.77230000      -0.57624000
H        2.81346000       0.13098000      -1.02645000
H        2.45453000       1.28258000       1.79332000
H        3.08073000       2.13562000       0.37050000
H        5.12676000       0.79228000       0.41119000
H        4.77847000       1.00080000       2.14504000
18
Properties=species:S:1:pos:R:3 energy=-1735.84 pbc="F F F"
N        0.99489000       0.03173000       0.15515000
C        2.45641000       0.01366000       0.02643000
C        2.92707000      -1.32588000      -0.54745000
C        2.61374000      -1.44261000      -2.03420000
O        3.17937000      -0.34497000      -2.75330000
C        2.61637000       0.90012000      -2.33617000
C        2.92971000       1.16326000      -0.86833000
H        0.70083000       0.90850000       0.58621000
H        0.69947000      -0.70681000       0.79407000
H        2.87954000       0.14253000       1.02983000
H        2.49024000      -2.16831000       0.00095000
H        4.01499000      -1.38727000      -0.41496000
H        3.05606000      -2.36120000      -2.43314000
H        1.53498000      -1.49025000      -2.22321000
H        3.06071000       1.68652000      -2.95437000
H        1.53781000       0.90079000      -2.53125000
H        4.01788000       1.25395000      -0.75505000
H        2.49479000       2.11817000      -0.55104000
17
Properties=species:S:1:pos:R:3 energy=-1578.95 pbc="F F F"
N        1.00943000       0.06775000       0.02274000
C        2.46909000       0.02188000      -0.07401000
C        3.10271000       0.96762000       0.97109000
N        4.07405000      -0.11457000       1.30377000
C        3.04143000      -1.10227000       0.82494000
C        3.67642000      -2.30091000       0.12827000
O        4.52944000      -2.98818000       1.04269000
H        0.53439000      -0.67778000      -0.48600000
H        0.60064000       0.94076000      -0.31037000
H        2.88406000       0.09638000      -1.08503000
H        2.47067000       1.24648000       1.82352000
H        3.55985000       1.87629000       0.56723000
H        4.90838000      -0.07823000       0.71492000
H        2.38020000      -1.42351000       1.64343000
H        4.28249000      -1.99677000      -0.73107000
H        2.91089000      -2.99899000      -0.22201000
H        4.84586000      -2.31956000       1.68055000
14
Properties=species:S:1:pos:R:3 energy=-1410.16 pbc="F F F"
N        0.93645000      -0.03277000       0.22082000
C        2.38031000      -0.00862000      -0.04924000
C        3.06891000       1.02600000       0.85231000
O        3.68617000      -0.01190000       1.65936000
C        3.11100000      -1.04413000       0.81800000
C        2.65732000       0.01710000      -1.46050000
C        2.89672000       0.03678000      -2.63792000
H        0.70255000      -0.12850000       1.20844000
H        0.44928000      -0.78492000      -0.26330000
H        2.42228000       1.66320000       1.46525000
H        3.82870000       1.65290000       0.37330000
H        3.89446000      -1.62414000       0.31837000
H        2.49039000      -1.72793000       1.40717000
H        3.11135000       0.05889000      -3.68129000
16
Properties=species:S:1:pos:R:3 energy=-1567.66 pbc="F F F"
N        0.92930000       0.08908000       0.14917000
C        2.38369000       0.08704000      -0.06294000
C        3.07368000       1.04790000       0.91461000
O        3.98272000      -0.00626000       1.34247000
C        3.06980000      -1.00919000       0.79048000
C        3.67308000      -2.12032000       0.00510000
C        4.98233000      -2.17683000      -0.26372000
H        0.45282000      -0.68641000      -0.31083000
H        0.47048000       0.93487000      -0.18844000
H        2.70756000       0.17599000      -1.10414000
H        2.48699000       1.42104000       1.76049000
H        3.61153000       1.87632000       0.44556000
H        2.45599000      -1.41769000       1.60567000
H        3.00654000      -2.90370000      -0.34155000
H        5.67221000      -1.41106000       0.08091000
H        5.39905000      -3.00248000      -0.83209000
12
Properties=species:S:1:pos:R:3 energy=-1270.29 pbc="F F F"
N        0.96696000       0.02303000      -0.05157000
C        2.31048000      -0.02113000      -0.02268000
C        3.16156000       1.06025000      -0.01256000
O        4.45952000       0.64457000       0.01882000
C        4.43578000      -0.71784000       0.02571000
C        3.13923000      -1.16016000       0.00040000
O        2.78606000      -2.45548000      -0.00779000
H        0.46444000       0.90361000       0.02418000
H        0.37527000      -0.78881000       0.07928000
H        3.01929000       2.13066000      -0.02266000
H        5.39900000      -1.20755000       0.04495000
H        1.81994000      -2.51615000      -0.07126000
16
Properties=species:S:1:pos:R:3 energy=-1529.77 pbc="F F F"
N        0.98839000       0.00412000       0.09303000
C        2.45606000      -0.00559000      -0.02087000
C        2.95892000      -1.33819000      -0.59944000
O        2.64864000      -1.46641000      -1.98508000
C        3.16155000      -0.37034000      -2.72949000
O        2.63951000       0.88051000      -2.30355000
C        2.94924000       1.12854000      -0.93413000
H        0.66537000       0.88497000       0.48491000
H        0.67153000      -0.74507000       0.70304000
H        2.86516000       0.13262000       0.98623000
H        2.51189000      -2.18748000      -0.07093000
H        4.04614000      -1.42164000      -0.47442000
H        4.25808000      -0.36078000      -2.69040000
H        2.87120000      -0.51326000      -3.77435000
H        4.03565000       1.25068000      -0.83695000
H        2.49510000       2.08449000      -0.65059000
16
Properties=species:S:1:pos:R:3 energy=-1515.64 pbc="F F F"
N        0.92089000      -0.10347000       0.15421000
C        2.38454000      -0.03472000      -0.10808000
C        2.72160000      -0.00486000      -1.58173000
O        1.94937000       1.01182000      -2.22032000
C        3.01223000       1.03021000       0.81517000
O        3.30948000       0.01067000       1.81656000
C        3.12480000      -1.02573000       0.81130000
H        0.69807000       0.00151000       1.14910000
H        0.50013000      -0.99476000      -0.11405000
H        2.47993000      -0.95929000      -2.06182000
H        3.78120000       0.20389000      -1.75772000
H        1.07901000       0.99320000      -1.77237000
H        2.34815000       1.80725000       1.20577000
H        3.93607000       1.49395000       0.45320000
H        4.09201000      -1.38453000       0.44383000
H        2.54820000      -1.87225000       1.19564000
23
Properties=species:S:1:pos:R:3 energy=-2191.69 pbc="F F F"
C        0.95827000      -0.05110000      -0.01178000
C        2.47764000      -0.01436000       0.01898000
C        3.00535000       1.41973000      -0.00810000
C        4.53480000       1.44705000       0.01182000
C        5.06927000       2.88056000       0.00193000
C        6.59767000       2.90125000       0.00629000
C        7.13678000       4.32250000       0.00884000
H        0.60371000      -1.08658000       0.01330000
H        0.57264000       0.41763000      -0.92309000
H        0.53482000       0.47377000       0.85073000
H        2.86779000      -0.57151000      -0.84054000
H        2.83085000      -0.52357000       0.92308000
H        2.61597000       1.97129000       0.85639000
H        2.64083000       1.92979000      -0.90791000
H        4.92210000       0.90475000      -0.85924000
H        4.89996000       0.92646000       0.90531000
H        4.69100000       3.41929000       0.87929000
H        4.69700000       3.40629000      -0.88563000
H        6.97908000       2.37388000      -0.87563000
H        6.97516000       2.37229000       0.88911000
H        6.80057000       4.87186000      -0.87648000
H        8.23128000       4.31261000       0.00709000
H        6.80368000       4.86693000       0.89854000
16
Properties=species:S:1:pos:R:3 energy=-1594.53 pbc="F F F"
N        2.37453000      -0.37419000       1.46069000
C        2.58086000       0.00474000       0.06588000
C        3.09968000       1.40342000      -0.03960000
C        4.26818000       1.80385000      -0.53767000
C        4.37519000       3.27072000      -0.39606000
C        2.95936000       3.63250000       0.03749000
O        2.28402000       2.42638000       0.44730000
H        1.80028000      -1.21304000       1.49295000
H        1.82357000       0.36432000       1.90056000
H        1.63053000      -0.06382000      -0.47530000
H        3.27340000      -0.70543000      -0.39829000
H        5.03745000       1.15918000      -0.93453000
H        5.10987000       3.53313000       0.37180000
H        4.64806000       3.77076000      -1.32936000
H        2.39255000       4.07419000      -0.79095000
H        2.95875000       4.34475000       0.86915000
14
Properties=species:S:1:pos:R:3 energy=-1468.54 pbc="F F F"
N        1.00000000       0.00000000       0.00000000
C        2.15101000       0.00000000       0.00000000
C        3.59501000       0.00000000       0.00000000
C        4.18660000       1.11418000       0.83705000
C        5.56577000       0.57837000       1.14779000
O        5.44204000      -0.84616000       1.23573000
C        4.17808000      -1.23093000       0.66886000
H        3.98325000       0.07515000      -1.02331000
H        3.62302000       1.24808000       1.76949000
H        4.21420000       2.08042000       0.32416000
H        6.27048000       0.80447000       0.34045000
H        5.96912000       0.97322000       2.08427000
H        4.33833000      -2.05052000      -0.03948000
H        3.55217000      -1.60885000       1.48624000
17
Properties=species:S:1:pos:R:3 energy=-1585.18 pbc="F F F"
N        2.69036000      -1.43301000      -0.86557000
C        1.95106000      -0.26649000      -0.38386000
C        2.90048000       0.76704000       0.15477000
C        3.58343000       0.49748000       1.46746000
N        2.61546000       0.53709000       2.56062000
C        3.51893000       1.75914000      -0.80987000
O        2.41583000       2.12164000       0.02959000
H        2.02818000      -2.07089000      -1.30638000
H        3.04721000      -1.94166000      -0.05638000
H        1.22580000      -0.57090000       0.37823000
H        1.37699000       0.14463000      -1.22260000
H        4.36186000       1.24505000       1.65879000
H        4.07669000      -0.47944000       1.45084000
H        2.15383000       1.44847000       2.53454000
H        3.11604000       0.50340000       3.44706000
H        3.32819000       1.63898000      -1.86960000
H        4.48707000       2.18512000      -0.57953000
16
Properties=species:S:1:pos:R:3 energy=-1510.39 pbc="F F F"
N        3.12078000      -1.11788000      -0.36080000
C        2.37811000       0.05882000       0.07418000
C        3.28424000       1.24531000       0.03064000
C        3.20482000       2.27918000      -1.06615000
O        2.16730000       2.13331000      -2.04780000
C        2.72629000       2.61415000       0.32199000
O        3.55958000       3.50240000       1.08521000
H        2.47919000      -1.90681000      -0.42159000
H        3.80779000      -1.36715000       0.34781000
H        2.02246000      -0.09841000       1.09838000
H        1.49673000       0.19060000      -0.56128000
H        4.26144000       1.02180000       0.44272000
H        4.14547000       2.70406000      -1.40109000
H        1.99476000       2.97812000      -2.49836000
H        1.65402000       2.70539000       0.46689000
H        4.50247000       3.27306000       1.02289000
20
Properties=species:S:1:pos:R:3 energy=-1918.18 pbc="F F F"
C        0.92590000       0.14601000      -0.27188000
C        2.41073000       0.11763000       0.00774000
C        2.71935000      -0.01138000       1.48268000
C        3.30067000      -0.62212000      -0.96576000
C        3.37328000       0.88462000      -0.91144000
C        2.83834000       1.65390000      -2.09871000
N        4.58496000       1.49174000      -0.33213000
H        0.68896000       0.02508000      -1.33319000
H        0.49636000       1.09306000       0.07069000
H        0.42186000      -0.66941000       0.25865000
H        3.77824000      -0.20389000       1.68049000
H        2.15793000      -0.84459000       1.91736000
H        2.43348000       0.90507000       2.00778000
H        2.84777000      -1.08591000      -1.83637000
H        4.13566000      -1.19676000      -0.57974000
H        2.07116000       1.10526000      -2.65211000
H        3.64684000       1.87000000      -2.80533000
H        2.40900000       2.60541000      -1.76913000
H        5.06865000       0.85208000       0.29445000
H        4.33819000       2.30847000       0.22535000
17
Properties=species:S:1:pos:R:3 energy=-1588.67 pbc="F F F"
N        2.66317000      -1.27398000      -0.12267000
C        2.04694000       0.02295000       0.15142000
C        3.11634000       1.10662000       0.16313000
N        4.35679000       0.82285000       0.94781000
C        3.28787000       1.94958000      -1.08020000
C        2.64878000       2.55105000       0.13550000
O        3.47348000       3.46366000       0.88391000
H        1.93078000      -1.98024000      -0.17637000
H        3.24397000      -1.53507000       0.67073000
H        1.54502000      -0.00784000       1.12492000
H        1.28512000       0.22947000      -0.60897000
H        4.10271000       0.46031000       1.86570000
H        4.84578000       0.06003000       0.47371000
H        2.65640000       1.74521000      -1.93679000
H        4.28386000       2.28160000      -1.34973000
H        1.58536000       2.75792000       0.09048000
H        4.27954000       2.98328000       1.16382000
16
Properties=species:S:1:pos:R:3 energy=-1655.45 pbc="F F F"
C        0.93420000      -0.01667000       0.08739000
C        2.45383000       0.00164000      -0.03684000
C        3.15633000       1.06128000       0.86752000
C        4.20989000      -0.00574000       1.22298000
C        3.17865000      -1.07911000       0.82390000
C        2.86620000       0.03452000      -1.43332000
N        3.19565000       0.06064000      -2.54573000
H        0.61723000      -0.04123000       1.13649000
H        0.50798000      -0.89849000      -0.40370000
H        0.48951000       0.87535000      -0.36771000
H        2.56268000       1.38496000       1.73184000
H        3.54652000       1.95356000       0.36859000
H        5.09588000       0.01665000       0.57813000
H        4.53310000      -0.02368000       2.26689000
H        3.58709000      -1.94193000       0.28908000
H        2.59217000      -1.45003000       1.67399000
17
Properties=species:S:1:pos:R:3 energy=-1582.84 pbc="F F F"
N        2.35565000      -0.48495000      -1.44558000
C        2.29362000       0.11145000      -0.11007000
C        3.48384000       1.04191000       0.16765000
O        3.42877000       2.26778000      -0.62340000
C        3.02356000       3.02510000       0.54769000
C        3.38719000       1.85743000       1.47823000
N        4.73133000       2.07541000       2.04190000
H        1.57810000      -1.13005000      -1.57089000
H        3.21016000      -1.02856000      -1.54904000
H        2.28254000      -0.69319000       0.63345000
H        1.34898000       0.65806000      -0.01408000
H        4.44153000       0.52562000       0.01885000
H        3.59694000       3.95083000       0.65572000
H        1.95626000       3.26649000       0.50297000
H        2.62301000       1.56036000       2.19959000
H        5.40404000       2.42508000       1.35512000
H        5.15495000       1.23769000       2.43830000
14
Properties=species:S:1:pos:R:3 energy=-1384.73 pbc="F F F"
N        2.91649000      -1.05984000      -0.56234000
C        2.42306000       0.17506000       0.06757000
C        3.36519000       1.39561000      -0.06675000
O        3.37577000       1.88025000      -1.43293000
C        3.00778000       3.19023000      -1.24621000
C        2.76635000       3.48893000       0.01229000
O        2.93454000       2.42614000       0.86522000
H        2.24136000      -1.80728000      -0.40678000
H        3.78320000      -1.35395000      -0.11461000
H        2.24051000      -0.02594000       1.12963000
H        1.45281000       0.42023000      -0.37987000
H        4.39177000       1.11701000       0.20535000
H        2.95210000       3.80398000      -2.12698000
H        2.45686000       4.41854000       0.45450000
18
Properties=species:S:1:pos:R:3 energy=-1711.91 pbc="F F F"
N        0.86728000       0.09838000      -0.22711000
C        2.31282000      -0.06579000      -0.28082000
C        3.00663000       1.20484000       0.20787000
C        4.51746000       1.02477000       0.17392000
C        5.20440000       1.07978000      -1.19713000
O        6.12996000       2.09161000      -0.73295000
C        5.34794000       2.27979000       0.47093000
H        0.41539000      -0.74327000      -0.58201000
H        0.57968000       0.85734000      -0.84419000
H        2.61705000      -0.29823000      -1.30651000
H        2.60221000      -0.91588000       0.34582000
H        2.69123000       1.42638000       1.23586000
H        2.70671000       2.06065000      -0.41088000
H        4.84561000       0.16775000       0.77613000
H        4.60110000       1.45340000      -2.03000000
H        5.72033000       0.16317000      -1.49565000
H        5.96740000       2.22513000       1.37025000
H        4.81446000       3.23511000       0.44687000
16
Properties=species:S:1:pos:R:3 energy=-1566.27 pbc="F F F"
N        1.01448000      -0.01231000       0.02605000
C        2.47000000       0.00000000       0.00000000
C        2.95202000       1.36117000       0.00000000
C        3.34930000       2.48307000       0.00000000
C        3.83132000       3.84424000       0.00000000
C        2.68488000       4.85189000      -0.02894000
O        3.19095000       6.18283000       0.01142000
H        0.68973000      -0.97260000      -0.05828000
H        0.66834000       0.48115000      -0.79542000
H        2.82173000      -0.53139000      -0.89061000
H        2.84785000      -0.54083000       0.87355000
H        4.48833000       4.02211000      -0.85972000
H        4.45221000       4.02948000       0.88480000
H        2.00622000       4.71414000       0.81986000
H        2.09690000       4.74395000      -0.94659000
H        3.59278000       6.31439000       0.88777000
18
Properties=species:S:1:pos:R:3 energy=-1720.5 pbc="F F F"
N        0.84733000      -0.04812000       0.12361000
C        2.30630000      -0.10211000       0.06114000
C        2.90324000       1.29512000      -0.14352000
C        4.40673000       1.25159000      -0.20063000
C        5.12697000       1.63988000      -1.26462000
C        6.61869000       1.61859000      -1.32969000
O        7.00488000       0.76862000      -2.39720000
H        0.47999000      -0.99408000       0.21990000
H        0.48064000       0.30953000      -0.75811000
H        2.60650000      -0.76580000      -0.75758000
H        2.68205000      -0.53835000       0.99319000
H        2.60843000       1.95108000       0.68547000
H        2.49666000       1.74105000      -1.06047000
H        4.91219000       0.89541000       0.69544000
H        4.62346000       2.01129000      -2.15506000
H        7.07520000       1.25008000      -0.40575000
H        7.00376000       2.62303000      -1.52843000
H        6.57423000      -0.08883000      -2.24041000
23
Properties=species:S:1:pos:R:3 energy=-2189.55 pbc="F F F"
C        0.96868000      -0.10478000      -0.02335000
C        2.50001000       0.00733000      -0.04401000
C        3.02995000      -0.84342000      -1.20794000
C        3.03060000       1.48683000      -0.04206000
C        2.59162000       2.27439000      -1.29169000
C        2.51618000       2.23745000       1.20614000
C        4.57417000       1.50109000       0.01882000
H        0.53671000       0.38411000       0.85406000
H        0.66313000      -1.15667000       0.02075000
H        0.51620000       0.32883000      -0.92064000
H        2.86004000      -0.46863000       0.87899000
H        2.70556000      -0.45293000      -2.17778000
H        2.66081000      -1.87123000      -1.12876000
H        4.12189000      -0.90056000      -1.20479000
H        2.96714000       1.81746000      -2.21202000
H        2.97730000       3.29994000      -1.26074000
H        1.50228000       2.34291000      -1.36609000
H        2.75344000       1.68692000       2.12279000
H        1.43338000       2.39232000       1.17174000
H        2.97505000       3.22942000       1.28785000
H        4.94098000       0.90377000       0.86046000
H        4.95528000       2.52084000       0.14592000
H        5.02246000       1.10863000      -0.89917000
13
Properties=species:S:1:pos:R:3 energy=-1329.87 pbc="F F F"
N        1.01716000      -0.01643000       0.04724000
C        2.47000000       0.00000000       0.00000000
C        2.95202000       1.36117000       0.00000000
C        3.34930000       2.48307000       0.00000000
C        3.91043000       3.80973000      -0.01010000
N        5.26972000       3.87153000       0.02965000
O        3.20011000       4.80021000      -0.06091000
H        0.68749000      -0.97323000      -0.05746000
H        0.65124000       0.50341000      -0.74937000
H        2.81031000      -0.52533000      -0.89865000
H        2.86197000      -0.54555000       0.86436000
H        5.84229000       3.04201000       0.07547000
H        5.70596000       4.78193000       0.02581000
15
Properties=species:S:1:pos:R:3 energy=-1481.16 pbc="F F F"
N        2.83778000      -0.55053000       1.26374000
C        2.38585000       0.08523000       0.02959000
C        2.82972000       1.53255000      -0.05590000
C        1.93387000       2.53211000      -0.09145000
N        4.16930000       1.85469000      -0.11265000
C        5.24500000       1.00895000      -0.10731000
O        6.39952000       1.41794000      -0.16733000
H        2.44138000      -1.48717000       1.32085000
H        2.45846000      -0.03444000       2.05709000
H        1.29260000       0.01200000      -0.01923000
H        2.77308000      -0.46928000      -0.83278000
H        0.86633000       2.33701000      -0.05375000
H        2.23208000       3.57376000      -0.15748000
H        4.43630000       2.83059000      -0.15632000
H        5.00782000      -0.06331000      -0.06647000
19
Properties=species:S:1:pos:R:3 energy=-1736.93 pbc="F F F"
N        1.71364000       2.42861000      -1.80210000
C        2.53579000       2.60217000      -0.60967000
C        3.87106000       1.87632000      -0.78469000
C        4.78082000       1.99855000       0.44551000
N        5.99185000       1.16350000       0.27911000
C        5.23128000       3.44515000       0.72678000
O        6.18917000       3.43878000       1.78723000
H        0.82068000       2.90554000      -1.67198000
H        1.48956000       1.44228000      -1.93131000
H        2.00084000       2.20931000       0.26186000
H        2.69387000       3.67246000      -0.45335000
H        4.38995000       2.26667000      -1.67072000
H        3.67388000       0.81287000      -0.97966000
H        4.25965000       1.61827000       1.33211000
H        6.47779000       1.44515000      -0.57546000
H        5.70835000       0.19530000       0.11944000
H        4.39563000       4.07711000       1.03737000
H        5.70483000       3.89523000      -0.15237000
H        6.67004000       2.59097000       1.67166000
16
Properties=species:S:1:pos:R:3 energy=-1565.58 pbc="F F F"
N        0.98034000      -0.10676000      -0.01970000
C        2.44656000      -0.01990000       0.04919000
C        2.97739000       1.43282000       0.00000000
C        2.44258000       2.27088000       1.17623000
O        1.02867000       2.44584000       1.10361000
C        4.42139000       1.43282000       0.00000000
C        5.61155000       1.43282000       0.00000000
H        0.70998000      -1.09116000       0.03786000
H        0.67542000       0.19926000      -0.94734000
H        2.86750000      -0.60093000      -0.78086000
H        2.77712000      -0.50678000       0.97523000
H        2.61433000       1.88610000      -0.93221000
H        2.89243000       3.27019000       1.17689000
H        2.68056000       1.80415000       2.13940000
H        0.65889000       1.55196000       0.92777000
H        6.67770000       1.43716000      -0.00047000
18
Properties=species:S:1:pos:R:3 energy=-1723.31 pbc="F F F"
N        2.20170000      -0.89162000       1.30358000
C        2.16332000      -0.32313000      -0.04442000
C        3.08678000       0.89335000      -0.18105000
C        4.57918000       0.60562000       0.05704000
O        4.78876000       0.16680000       1.39494000
C        5.15698000      -0.37900000      -0.92782000
C        5.73425000      -1.55364000      -0.63567000
H        1.58871000      -1.70842000       1.33299000
H        1.79272000      -0.22305000       1.96014000
H        1.13473000      -0.02205000      -0.27180000
H        2.43902000      -1.09561000      -0.76952000
H        2.75895000       1.65820000       0.53594000
H        2.95469000       1.32065000      -1.18325000
H        5.13255000       1.54551000      -0.05237000
H        4.06586000      -0.47369000       1.57438000
H        5.10277000      -0.08195000      -1.97228000
H        5.83329000      -1.89814000       0.38947000
H        6.13029000      -2.19141000      -1.41788000
13
Properties=species:S:1:pos:R:3 energy=-1340.19 pbc="F F F"
N        1.06077000      -0.30145000      -0.11360000
C        2.40698000      -0.03976000      -0.07520000
C        3.05352000       1.13799000       0.00000000
C        2.36001000       2.46916000       0.01634000
O        2.36016000       3.01008000       1.33134000
C        4.45952000       1.13799000       0.00000000
N        5.61053000       1.13799000       0.00000000
H        0.79359000      -1.22998000       0.21219000
H        0.43758000       0.43143000       0.21494000
H        2.98498000      -0.96568000      -0.12639000
H        1.32179000       2.40519000      -0.32328000
H        2.86482000       3.17991000      -0.64714000
H        2.00118000       2.33390000       1.93059000
19
Properties=species:S:1:pos:R:3 energy=-1739.3 pbc="F F F"
N        1.14932000       0.08393000      -0.93405000
C        2.58785000       0.09933000      -0.67153000
C        3.04212000       1.51312000      -0.31167000
C        4.52642000       1.55169000       0.05104000
O        5.31014000       1.15749000      -1.08059000
C        4.96555000       2.96328000       0.48130000
N        6.42037000       2.98657000       0.69682000
H        0.87482000      -0.85943000      -1.20647000
H        0.95233000       0.67421000      -1.74245000
H        3.11913000      -0.26611000      -1.55709000
H        2.80208000      -0.58726000       0.15453000
H        2.45146000       1.88888000       0.53284000
H        2.85514000       2.17501000      -1.16710000
H        4.73500000       0.83873000       0.85823000
H        6.18782000       1.56599000      -0.92180000
H        4.44455000       3.27280000       1.39269000
H        4.73564000       3.68379000      -0.31100000
H        6.64934000       2.40051000       1.50153000
H        6.69690000       3.93387000       0.95993000
19
Properties=species:S:1:pos:R:3 energy=-1729.59 pbc="F F F"
N        2.18197000       0.87428000       1.25381000
C        1.75660000       2.19063000       0.76306000
C        2.88664000       3.23679000       0.85675000
N        4.10928000       2.76264000       0.19205000
C        5.15365000       3.80135000       0.22095000
C        6.38912000       3.34975000      -0.56300000
O        6.05831000       3.17103000      -1.94163000
H        3.08227000       0.68227000       0.80337000
H        2.42276000       0.96316000       2.24038000
H        0.88726000       2.53013000       1.33701000
H        1.43793000       2.08396000      -0.28077000
H        3.10332000       3.42658000       1.91300000
H        2.53626000       4.17200000       0.40880000
H        3.91015000       2.56189000      -0.79399000
H        5.44025000       4.01003000       1.25582000
H        4.76558000       4.72257000      -0.23186000
H        6.78190000       2.40656000      -0.16983000
H        7.17209000       4.11185000      -0.49808000
H        6.84716000       2.79172000      -2.36808000
18
Properties=species:S:1:pos:R:3 energy=-1707.16 pbc="F F F"
N        1.40648000      -0.66980000      -0.49335000
C        2.37074000      -0.14600000       0.47920000
C        2.65513000       1.34141000       0.24583000
O        3.28629000       1.50147000      -1.02890000
C        3.62984000       2.87098000      -1.31219000
C        5.09744000       3.19144000      -1.28686000
C        4.37716000       3.07811000      -2.59912000
H        1.42523000      -1.68797000      -0.46912000
H        1.73006000      -0.40148000      -1.42610000
H        3.30347000      -0.71375000       0.38131000
H        1.97787000      -0.29723000       1.48859000
H        3.32688000       1.71394000       1.02762000
H        1.72505000       1.92138000       0.27030000
H        2.92969000       3.65130000      -1.03151000
H        5.78830000       2.40091000      -1.02032000
H        5.39469000       4.17783000      -0.95384000
H        4.18066000       3.98662000      -3.15479000
H        4.57291000       2.20976000      -3.21664000
19
Properties=species:S:1:pos:R:3 energy=-1727.43 pbc="F F F"
N        3.20685000      -0.95705000      -0.11685000
C        2.82363000      -0.15049000       1.04625000
C        2.71193000       1.33425000       0.68267000
O        4.00761000       1.82873000       0.31955000
C        3.94445000       3.20852000      -0.06381000
C        5.34744000       3.68831000      -0.45221000
N        5.83694000       2.99599000      -1.64806000
H        3.51036000      -1.87714000       0.19721000
H        4.02427000      -0.51395000      -0.54202000
H        3.58519000      -0.27969000       1.82342000
H        1.86733000      -0.51444000       1.43319000
H        2.34633000       1.89373000       1.55111000
H        2.01241000       1.47332000      -0.15010000
H        3.58074000       3.80015000       0.78377000
H        3.25147000       3.32952000      -0.90515000
H        6.04169000       3.48870000       0.37217000
H        5.33547000       4.76546000      -0.64281000
H        5.70774000       1.99295000      -1.49666000
H        6.84068000       3.14546000      -1.73599000
18
Properties=species:S:1:pos:R:3 energy=-1657.9 pbc="F F F"
N        2.74818000      -0.74322000      -1.21615000
C        2.39422000      -0.02659000       0.01216000
C        2.91838000       1.41408000      -0.00687000
O        4.35246000       1.39734000      -0.01201000
C        4.88437000       2.72939000       0.00667000
C        6.40588000       2.63434000      -0.02478000
O        6.82590000       2.00597000      -1.23469000
H        2.56279000      -1.73701000      -1.09041000
H        3.75758000      -0.65529000      -1.34779000
H        2.82864000      -0.56212000       0.86348000
H        1.30555000      -0.02503000       0.12306000
H        2.56803000       1.93674000       0.89041000
H        2.55169000       1.94480000      -0.89330000
H        4.55757000       3.24454000       0.91624000
H        4.52352000       3.26728000      -0.87738000
H        6.77710000       2.02934000       0.80807000
H        6.86047000       3.62757000       0.02324000
H        6.25191000       1.22148000      -1.32882000
18
Properties=species:S:1:pos:R:3 energy=-1671.43 pbc="F F F"
N        1.23640000      -0.25790000      -0.48007000
C        2.69252000      -0.17962000      -0.29815000
C        3.11455000       1.29318000      -0.14838000
O        2.32584000       1.89278000       0.88877000
C        4.60086000       1.42487000       0.19446000
C        5.02367000       2.88134000       0.36686000
O        4.43426000       3.45236000       1.52735000
H        0.96479000      -1.24044000      -0.54111000
H        0.98515000       0.15222000      -1.38096000
H        3.20647000      -0.64926000      -1.14314000
H        2.94449000      -0.73491000       0.61220000
H        2.89673000       1.83661000      -1.07567000
H        1.45819000       1.43580000       0.82474000
H        5.20204000       0.96205000      -0.59598000
H        4.80069000       0.89387000       1.13350000
H        4.73872000       3.48280000      -0.50226000
H        6.10978000       2.94552000       0.48221000
H        3.50360000       3.13713000       1.54751000
15
Properties=species:S:1:pos:R:3 energy=-1487.85 pbc="F F F"
N        3.15477000      -1.19519000       0.12732000
C        2.26361000      -0.04536000      -0.15153000
C        3.02508000       1.28570000      -0.10640000
O        2.44368000       2.36640000      -0.05830000
N        4.39765000       1.12596000      -0.15313000
C        5.29963000       2.14948000      -0.11704000
C        6.61569000       1.93184000      -0.14258000
H        2.61245000      -2.05101000      -0.00594000
H        3.38527000      -1.17992000       1.12387000
H        1.46479000      -0.01832000       0.59670000
H        1.82706000      -0.15441000      -1.14807000
H        4.71236000       0.15930000      -0.21676000
H        4.89235000       3.16005000      -0.06094000
H        7.03837000       0.93422000      -0.19283000
H        7.30888000       2.76763000      -0.10987000
16
Properties=species:S:1:pos:R:3 energy=-1645.29 pbc="F F F"
C        1.00172000       0.03513000      -0.02104000
C        2.52450000       0.00946000       0.00114000
C        3.09098000       1.33687000       0.47444000
C        3.83642000       1.14458000       1.57767000
C        3.88906000      -0.25279000       2.02385000
N        4.48772000      -1.25848000       1.16319000
C        3.05599000      -1.01109000       1.00483000
H        0.60640000      -0.93377000      -0.34417000
H        0.63143000       0.79993000      -0.71187000
H        0.58687000       0.24406000       0.97160000
H        2.90729000      -0.22053000      -1.00015000
H        2.92717000       2.28403000      -0.01781000
H        4.35586000       1.93422000       2.10469000
H        3.75547000      -0.47715000       3.07370000
H        5.02405000      -0.81469000       0.41630000
H        2.37520000      -1.78280000       1.33066000
23
Properties=species:S:1:pos:R:3 energy=-2192.0 pbc="F F F"
C        2.00161000      -1.25233000       0.34957000
C        3.42104000      -0.85926000      -0.07164000
C        3.66627000      -1.28957000      -1.51830000
C        3.62259000       0.65562000       0.13544000
C        5.02056000       1.20394000      -0.21411000
C        5.04901000       2.71959000       0.00521000
C        6.12915000       0.54442000       0.60661000
H        1.81923000      -0.98790000       1.39646000
H        1.85064000      -2.33226000       0.24817000
H        1.24949000      -0.74598000      -0.26488000
H        4.11549000      -1.40848000       0.57496000
H        3.03626000      -0.72381000      -2.21271000
H        3.44246000      -2.35366000      -1.64996000
H        4.71120000      -1.14178000      -1.80646000
H        3.40167000       0.89654000       1.18425000
H        2.87639000       1.19496000      -0.46371000
H        5.22413000       1.02612000      -1.27640000
H        4.86548000       2.97388000       1.05488000
H        4.28483000       3.21535000      -0.60299000
H        6.02151000       3.13589000      -0.27898000
H        5.94009000       0.64311000       1.68089000
H        7.09905000       1.00598000       0.39104000
H        6.21948000      -0.52042000       0.37182000
16
Properties=species:S:1:pos:R:3 energy=-1657.83 pbc="F F F"
C        0.95643000       0.06819000       0.00069000
C        2.44075000       0.03711000      -0.01886000
C        3.28016000       1.08899000       0.00185000
C        4.64090000       0.61296000       0.00827000
C        4.64111000      -0.72833000      -0.00497000
C        3.23337000      -1.24453000      -0.01420000
N        3.00236000      -2.05678000      -1.19237000
H        0.57854000       1.09423000       0.05757000
H        0.57571000      -0.47829000       0.86905000
H        0.54716000      -0.38888000      -0.90519000
H        3.00565000       2.13279000       0.01971000
H        5.51015000       1.25213000       0.01971000
H        5.51734000      -1.35841000      -0.00273000
H        3.03665000      -1.82188000       0.89568000
H        3.14791000      -1.47153000      -2.01363000
H        2.02533000      -2.33598000      -1.21334000
14
Properties=species:S:1:pos:R:3 energy=-1472.88 pbc="F F F"
N        2.71684000      -0.96605000      -0.46382000
C        2.18095000       0.15266000       0.09944000
O        1.05866000       0.13389000       0.59063000
C        3.04032000       1.38524000       0.02885000
C        2.40434000       2.56461000       0.13044000
C        4.48959000       1.27880000      -0.01438000
C        5.30367000       2.06794000      -0.72828000
H        3.57389000      -0.95365000      -0.99707000
H        2.13505000      -1.79217000      -0.49246000
H        1.32160000       2.61743000       0.21168000
H        2.93929000       3.50761000       0.15098000
H        4.92118000       0.47846000       0.58487000
H        4.92893000       2.87505000      -1.35063000
H        6.37894000       1.91892000      -0.70315000
12
Properties=species:S:1:pos:R:3 energy=-1314.1 pbc="F F F"
N        1.16791000      -0.07319000      -0.61201000
C        2.38387000      -0.05740000       0.00680000
O        2.85149000      -1.08206000       0.48807000
C        3.11850000       1.25054000       0.00000000
C        2.45121000       2.41463000       0.06813000
C        4.52450000       1.25054000       0.00000000
C        5.71466000       1.25054000       0.00000000
H        0.82655000       0.69139000      -1.17402000
H        0.70807000      -0.97113000      -0.68539000
H        1.37049000       2.46383000       0.13579000
H        2.98250000       3.36195000       0.09489000
H        6.77966000       1.23761000       0.00504000
16
Properties=species:S:1:pos:R:3 energy=-1615.44 pbc="F F F"
N        1.15029000      -0.22956000       0.46962000
C        2.44694000      -0.22663000       0.04408000
O        2.97393000      -1.25152000      -0.36833000
C        3.11369000       1.12979000       0.08528000
C        4.63291000       1.00594000       0.00211000
C        5.29423000       2.35416000       0.06615000
C        6.09623000       2.74848000       1.06261000
H        0.71959000       0.56378000       0.92306000
H        0.67115000      -1.12049000       0.49210000
H        2.82665000       1.64083000       1.01218000
H        2.73071000       1.71705000      -0.75835000
H        4.92304000       0.51766000      -0.93644000
H        4.99361000       0.35778000       0.81189000
H        5.11300000       3.03082000      -0.76564000
H        6.31609000       2.10432000       1.90890000
H        6.55514000       3.73180000       1.05002000
15
Properties=species:S:1:pos:R:3 energy=-1450.73 pbc="F F F"
N        1.12794000       0.07253000       0.47484000
N        2.30112000       0.08569000      -0.19546000
C        2.96652000       1.20013000      -0.13578000
C        2.59658000       2.44737000       0.59369000
C        3.46264000       3.41568000      -0.18023000
O        4.66699000       2.70671000      -0.50385000
C        4.29128000       1.35620000      -0.82978000
H        0.77612000      -0.88840000       0.51539000
H        0.40798000       0.58466000      -0.04175000
H        2.92859000       2.35231000       1.63190000
H        1.53731000       2.70175000       0.54694000
H        2.98198000       3.72554000      -1.11631000
H        3.70745000       4.31071000       0.39849000
H        4.18019000       1.25142000      -1.91172000
H        5.03701000       0.66287000      -0.43585000
14
Properties=species:S:1:pos:R:3 energy=-1557.4 pbc="F F F"
C        1.02791000      -0.02089000       0.07269000
C        2.52277000       0.04382000      -0.01273000
C        3.18212000       1.26682000      -0.09364000
C        4.57088000       1.27762000      -0.18835000
C        5.26083000       0.07084000      -0.20729000
C        4.52822000      -1.09986000      -0.13035000
N        3.18134000      -1.14015000      -0.03527000
H        0.59086000       0.96322000       0.26930000
H        0.72839000      -0.69040000       0.88511000
H        0.61912000      -0.40028000      -0.86892000
H        2.62896000       2.20121000      -0.08147000
H        5.10904000       2.21815000      -0.24825000
H        6.34184000       0.04478000      -0.28172000
H        5.01885000      -2.06911000      -0.14450000
13
Properties=species:S:1:pos:R:3 energy=-1298.52 pbc="F F F"
N        1.31246000       0.02377000       0.01729000
N        2.68322000       0.40250000       0.01559000
C        3.74436000      -0.60075000      -0.07811000
C        3.44417000      -1.82243000       0.68524000
C        3.20349000      -2.82233000       1.30716000
C        2.98876000       1.73692000      -0.21488000
O        4.10993000       2.19045000      -0.41239000
H        1.11204000      -0.38636000       0.93408000
H        1.18950000      -0.74014000      -0.65240000
H        4.68371000      -0.16184000       0.27675000
H        3.87732000      -0.83410000      -1.14064000
H        2.99528000      -3.70854000       1.86128000
H        2.09326000       2.38135000      -0.20039000
15
Properties=species:S:1:pos:R:3 energy=-1467.11 pbc="F F F"
N        0.84699000       1.76056000      -0.04334000
N        2.23653000       1.86210000       0.18112000
C        3.08715000       0.88289000      -0.30416000
O        2.71411000      -0.09778000      -0.93869000
C        4.52833000       1.13075000      -0.01782000
C        5.56460000       0.06523000      -0.29046000
C        5.49802000       1.28279000      -1.16642000
H        0.55339000       0.84083000       0.30734000
H        0.71295000       1.66808000      -1.05750000
H        2.60001000       2.67894000       0.66545000
H        4.71557000       1.74979000       0.85451000
H        5.23635000      -0.87981000      -0.71016000
H        6.39534000      -0.02304000       0.39910000
H        6.28610000       2.02020000      -1.07403000
H        5.12600000       1.15247000      -2.17748000
12
Properties=species:S:1:pos:R:3 energy=-1298.68 pbc="F F F"
O        0.93736000      -0.17457000      -0.35774000
C        2.08620000       0.08609000      -0.11617000
C        3.39623000      -0.57121000       0.54988000
N        3.49627000       0.82368000       1.16765000
C        3.13977000       1.29712000      -0.24059000
C        4.25185000       0.72847000      -1.03813000
C        4.42080000      -0.49797000      -0.51908000
H        3.32686000      -1.42134000       1.21948000
H        2.77813000       1.02096000       1.86709000
H        2.81137000       2.32317000      -0.36611000
H        4.79895000       1.20209000      -1.83665000
H        5.13687000      -1.25361000      -0.79691000
15
Properties=species:S:1:pos:R:3 energy=-1426.9 pbc="F F F"
O        0.49144000       0.10188000      -0.31864000
C        1.87939000      -0.08906000      -0.00159000
C        2.63363000      -0.99777000      -0.92438000
C        2.86446000       0.48658000      -0.98708000
N        4.14294000       1.03388000      -0.51043000
N        3.91428000       2.32675000      -0.19074000
C        4.94907000       2.91338000       0.31421000
H        0.22251000       1.00948000      -0.09179000
H        2.16043000      -0.09158000       1.04667000
H        2.08577000      -1.46062000      -1.73573000
H        3.40019000      -1.62614000      -0.48772000
H        2.44929000       0.99695000      -1.85383000
H        4.84984000       0.94477000      -1.24529000
H        4.88185000       3.97162000       0.61083000
H        5.91873000       2.41202000       0.47727000
12
Properties=species:S:1:pos:R:3 energy=-1331.92 pbc="F F F"
O        1.09631000      -0.00366000       0.47342000
C        2.26927000      -0.01057000       0.17140000
C        3.31369000       1.09010000      -0.06799000
C        4.23419000      -0.01269000      -0.66231000
C        3.28366000      -1.12315000      -0.13342000
C        4.37549000       0.02803000      -2.10366000
N        4.48397000       0.06061000      -3.25793000
H        3.67990000       1.53868000       0.86063000
H        2.98431000       1.87661000      -0.75183000
H        5.21367000      -0.04054000      -0.16668000
H        2.93367000      -1.85874000      -0.86223000
H        3.63687000      -1.63552000       0.76681000
14
Properties=species:S:1:pos:R:3 energy=-1463.31 pbc="F F F"
O        1.83474000       0.45771000       1.06885000
C        2.70378000       0.08646000       0.29279000
C        2.85196000      -1.33031000      -0.21500000
C        4.12780000      -1.32752000      -1.05713000
C        4.64268000       0.07416000      -0.99286000
C        3.86318000       1.20531000      -1.58553000
N        3.74690000       0.86699000      -0.20584000
H        1.97683000      -1.60990000      -0.80781000
H        2.95186000      -2.00924000       0.63753000
H        4.86023000      -2.03560000      -0.65573000
H        3.91393000      -1.61906000      -2.09108000
H        5.68387000       0.18516000      -0.72888000
H        4.35820000       2.15294000      -1.75341000
H        2.98646000       1.01129000      -2.18829000
18
Properties=species:S:1:pos:R:3 energy=-1740.7 pbc="F F F"
O        1.10433000       0.10794000       0.20723000
C        2.52910000       0.03671000       0.10456000
C        2.92155000      -1.33265000      -0.45243000
C        2.50142000      -1.47724000      -1.91632000
C        2.95749000      -0.28351000      -2.75346000
N        2.49103000       0.98371000      -2.18148000
C        3.02089000       1.16458000      -0.81729000
H        0.79721000       0.34845000      -0.69093000
H        2.93858000       0.16360000       1.11166000
H        2.45103000      -2.13092000       0.13350000
H        4.00850000      -1.45945000      -0.37571000
H        2.92142000      -2.40110000      -2.32962000
H        1.41017000      -1.57222000      -1.97748000
H        4.05085000      -0.27699000      -2.84173000
H        2.55554000      -0.38190000      -3.76793000
H        2.82026000       1.75340000      -2.76635000
H        4.11566000       1.20608000      -0.83354000
H        2.65233000       2.12551000      -0.44188000
16
Properties=species:S:1:pos:R:3 energy=-1570.62 pbc="F F F"
O        1.00321000       0.07413000       0.03911000
C        2.42090000       0.00709000       0.00115000
C        3.00870000      -1.07371000       0.91335000
N        3.80929000      -0.25568000       1.87037000
C        4.46878000       0.78879000       0.96445000
C        3.00758000       1.21799000       0.69712000
C        2.85900000       0.89927000       2.20472000
H        0.66236000      -0.78203000      -0.27210000
H        2.75862000      -0.08108000      -1.03697000
H        3.66568000      -1.75451000       0.36194000
H        2.24495000      -1.66008000       1.43461000
H        5.03784000       0.38854000       0.11777000
H        5.10235000       1.51345000       1.49145000
H        2.80459000       2.22425000       0.33552000
H        3.27068000       1.64006000       2.90206000
H        1.86720000       0.60555000       2.56560000
18
Properties=species:S:1:pos:R:3 energy=-1762.76 pbc="F F F"
C        1.02715000       0.06129000       0.18928000
C        2.51334000       0.04839000       0.06495000
C        3.24103000      -0.66745000      -1.06341000
C        2.49129000      -1.38343000      -2.09848000
C        2.58299000      -1.18642000      -3.42074000
N        3.12398000       0.79080000      -1.02825000
C        4.36617000       1.45932000      -0.65728000
H        0.71441000       0.88375000       0.84122000
H        0.67958000      -0.87485000       0.63795000
H        0.52036000       0.18912000      -0.77326000
H        2.99271000       0.06394000       1.03756000
H        4.20689000      -1.10571000      -0.83056000
H        1.81043000      -2.15607000      -1.74748000
H        3.24240000      -0.42493000      -3.82554000
H        1.98814000      -1.76754000      -4.11652000
H        4.14088000       2.44892000      -0.24622000
H        4.98566000       1.60407000      -1.54856000
H        4.96747000       0.91884000       0.08421000
16
Properties=species:S:1:pos:R:3 energy=-1591.66 pbc="F F F"
O        0.92746000      -0.02532000      -0.07429000
C        2.33252000      -0.04535000       0.15905000
C        3.03994000       1.24824000      -0.33561000
N        3.33299000       1.24326000      -1.77702000
C        4.17529000       0.10005000      -2.14124000
C        3.71824000      -1.19970000      -1.54697000
C        2.86397000      -1.27459000      -0.51490000
H        0.62855000       0.89374000      -0.00024000
H        2.47982000      -0.13071000       1.24127000
H        2.40981000       2.11833000      -0.12074000
H        3.98017000       1.38202000       0.21468000
H        3.81371000       2.10245000      -2.03468000
H        5.21325000       0.28385000      -1.83621000
H        4.17144000       0.01050000      -3.23304000
H        4.09453000      -2.11330000      -2.00086000
H        2.52941000      -2.23726000      -0.14353000
23
Properties=species:S:1:pos:R:3 energy=-2189.76 pbc="F F F"
C        2.85198000      -0.88379000      -1.08096000
C        2.46739000      -0.05343000       0.13502000
C        3.09342000       1.35920000       0.15555000
C        2.50805000       2.13907000       1.34152000
C        4.64945000       1.35943000       0.12888000
C        5.22028000       2.77825000       0.01702000
C        5.29201000       0.64271000       1.31950000
H        2.28611000      -1.82128000      -1.08750000
H        3.91449000      -1.14320000      -1.07460000
H        2.62837000      -0.34829000      -2.00918000
H        2.72579000      -0.60375000       1.04668000
H        1.37436000       0.04551000       0.13880000
H        2.75581000       1.87218000      -0.75624000
H        2.77856000       1.68395000       2.29920000
H        1.41384000       2.15945000       1.28378000
H        2.84455000       3.17966000       1.34619000
H        4.96885000       0.83385000      -0.77951000
H        5.07295000       3.35269000       0.93700000
H        4.75422000       3.32386000      -0.81005000
H        6.29820000       2.74191000      -0.17628000
H        5.03911000       1.12435000       2.26911000
H        6.38394000       0.65151000       1.22724000
H        4.98281000      -0.40516000       1.37212000
13
Properties=species:S:1:pos:R:3 energy=-1360.8 pbc="F F F"
O        1.51335000       0.03843000       1.22452000
C        2.37049000       0.01058000       0.36047000
N        2.93814000      -1.13119000      -0.21120000
C        3.93113000      -0.80575000      -1.19414000
C        5.18933000      -0.06078000      -0.86314000
C        3.96324000       0.72664000      -1.21228000
N        2.98500000       1.11545000      -0.23783000
H        2.67194000      -2.05731000       0.08583000
H        3.84059000      -1.31930000      -2.14323000
H        5.52872000      -0.05621000       0.16669000
H        5.99638000      -0.08612000      -1.58662000
H        3.89267000       1.22156000      -2.17219000
H        2.75633000       2.05851000       0.03852000
10
Properties=species:S:1:pos:R:3 energy=-1176.14 pbc="F F F"
O        1.16048000      -0.07477000      -0.40425000
C        2.33447000      -0.04092000      -0.09342000
N        3.15878000      -1.07987000       0.15236000
C        4.39579000      -0.64605000       0.47019000
O        5.37343000      -1.31159000       0.74772000
C        4.36141000       0.81909000       0.42296000
C        3.12248000       1.18282000       0.08421000
H        2.88757000      -2.04711000       0.10557000
H        5.21277000       1.44143000       0.63314000
H        2.72267000       2.17238000      -0.04770000
14
Properties=species:S:1:pos:R:3 energy=-1482.21 pbc="F F F"
O        3.26488000      -0.75562000      -0.71502000
C        2.23001000       0.04227000      -0.15326000
C        2.73998000       1.43082000      -0.05593000
C        2.11877000       2.59602000       0.35159000
C        3.06494000       3.64530000       0.25358000
C        4.23892000       3.09698000      -0.21066000
N        4.03201000       1.75699000      -0.39536000
H        2.89790000      -1.65231000      -0.79407000
H        1.97758000      -0.34966000       0.83643000
H        1.35168000      -0.00532000      -0.80384000
H        1.09263000       2.68361000       0.68465000
H        2.90701000       4.68843000       0.49474000
H        5.20049000       3.54261000      -0.42624000
H        4.70561000       1.08011000      -0.73433000
18
Properties=species:S:1:pos:R:3 energy=-1795.05 pbc="F F F"
C        0.97031000       0.10865000       0.02356000
C        2.45112000      -0.00219000      -0.02414000
C        3.21123000      -1.10016000      -0.10792000
C        2.77567000      -2.51871000      -0.17256000
C        4.65349000      -0.72934000      -0.09118000
N        4.68790000       0.74265000      -0.18999000
C        3.31048000       1.21174000       0.05564000
H        0.48274000      -0.86905000      -0.03455000
H        0.60772000       0.71333000      -0.81398000
H        0.65442000       0.58588000       0.95696000
H        3.63812000      -3.19165000      -0.22834000
H        2.16014000      -2.69508000      -1.06048000
H        2.20127000      -2.78959000       0.71905000
H        5.12635000      -1.05051000       0.84257000
H        5.19454000      -1.17455000      -0.93224000
H        4.92105000       0.97674000      -1.15409000
H        3.02787000       1.95669000      -0.69566000
H        3.24532000       1.66978000       1.04812000
20
Properties=species:S:1:pos:R:3 energy=-1916.53 pbc="F F F"
C        0.94694000      -0.02075000       0.22820000
C        2.44389000      -0.00747000      -0.07770000
C        2.69931000       0.01804000      -1.58422000
C        3.22891000       1.07159000       0.72197000
C        4.12922000      -0.02208000       1.31954000
N        5.42737000       0.00089000       0.64688000
C        3.24169000      -1.10412000       0.68331000
H        0.75573000      -0.03921000       1.30675000
H        0.46733000      -0.90281000      -0.20940000
H        0.45744000       0.86944000      -0.18091000
H        3.76664000       0.02352000      -1.82151000
H        2.25594000       0.91071000      -2.03826000
H        2.25924000      -0.86086000      -2.06739000
H        2.63050000       1.58636000       1.48361000
H        3.72096000       1.84458000       0.12082000
H        4.18745000      -0.03896000       2.41112000
H        5.39047000       0.08663000      -0.36758000
H        6.00055000      -0.82007000       0.83765000
H        3.74355000      -1.84915000       0.05583000
H        2.64985000      -1.65243000       1.42640000
16
Properties=species:S:1:pos:R:3 energy=-1515.25 pbc="F F F"
O        1.39291000      -0.79268000       0.70194000
C        1.49348000       0.51490000       0.13586000
C        2.94032000       0.94614000       0.13020000
C        3.64442000       0.83863000       1.46420000
O        3.92772000      -0.52705000       1.74920000
C        3.75495000       0.71522000      -1.12541000
N        3.30258000       2.05688000      -0.77553000
H        0.45327000      -1.04098000       0.64127000
H        0.89458000       1.20194000       0.74302000
H        1.07263000       0.48296000      -0.87508000
H        3.02248000       1.24453000       2.26999000
H        4.59649000       1.38070000       1.47079000
H        3.09393000      -1.00863000       1.55930000
H        3.27679000       0.25730000      -1.98241000
H        4.81600000       0.51379000      -1.03167000
H        4.07826000       2.60649000      -0.39961000
13
Properties=species:S:1:pos:R:3 energy=-1321.91 pbc="F F F"
O        1.85509000       0.00523000      -0.91457000
C        2.57700000      -0.01583000       0.31403000
C        3.41724000       1.21505000       0.43705000
N        3.89364000       1.90389000      -0.76357000
C        2.86638000       2.57064000       0.05809000
C        3.20707000       3.69850000       0.88167000
N        3.45295000       4.59960000       1.56988000
H        1.39346000      -0.84948000      -0.98063000
H        3.21333000      -0.90636000       0.32674000
H        1.86375000      -0.07445000       1.14158000
H        4.12279000       1.15023000       1.25759000
H        3.44504000       1.47611000      -1.58179000
H        1.88105000       2.61478000      -0.39389000
20
Properties=species:S:1:pos:R:3 energy=-1920.36 pbc="F F F"
C        0.99067000      -0.01157000       0.11615000
C        2.50320000       0.00448000       0.01988000
C        3.24259000       1.06754000       0.87583000
C        4.28850000      -0.01017000       1.25498000
C        4.79784000      -0.03546000       2.67679000
N        5.38218000       0.02756000       0.27488000
C        3.26241000      -1.08673000       0.82137000
H        0.58192000      -0.88206000      -0.40670000
H        0.56696000       0.88653000      -0.34438000
H        0.65160000      -0.05104000       1.15631000
H        2.81556000       0.03447000      -1.03357000
H        2.65550000       1.42547000       1.73152000
H        3.60376000       1.94452000       0.32881000
H        3.97033000      -0.05758000       3.39411000
H        5.40154000       0.85166000       2.89843000
H        5.41654000      -0.92058000       2.86190000
H        5.09118000       0.07061000      -0.70077000
H        6.01969000      -0.76518000       0.34099000
H        3.63962000      -1.92787000       0.23073000
H        2.68324000      -1.49828000       1.65807000
16
Properties=species:S:1:pos:R:3 energy=-1515.56 pbc="F F F"
O        1.89571000      -0.04603000      -1.31091000
C        2.19701000       0.18780000       0.06376000
C        3.41585000       1.11024000       0.16241000
N        3.25300000       2.40239000      -0.56470000
C        2.80042000       3.03988000       0.68975000
C        3.55421000       1.93383000       1.47221000
O        4.90391000       2.25603000       1.88567000
H        1.19564000      -0.72018000      -1.33919000
H        2.40871000      -0.77108000       0.54750000
H        1.30971000       0.62533000       0.53219000
H        4.32916000       0.57838000      -0.13241000
H        2.55892000       2.34601000      -1.31385000
H        3.16914000       4.05900000       0.83510000
H        1.71363000       3.03476000       0.83182000
H        2.99770000       1.53549000       2.32715000
H        5.30957000       2.61119000       1.07164000
12
Properties=species:S:1:pos:R:3 energy=-1257.54 pbc="F F F"
O        0.86419000       0.56849000       0.47737000
C        2.01787000       0.21976000       0.22004000
C        3.21254000       1.16041000      -0.06428000
N        2.82998000       2.56823000      -0.33025000
C        3.33974000       3.07105000       0.95827000
C        3.80546000       1.64208000       1.25370000
O        4.39806000       1.09901000       2.16325000
H        2.25896000      -0.85525000       0.15484000
H        3.94915000       0.75328000      -0.76105000
H        1.81506000       2.68303000      -0.42808000
H        4.15107000       3.79673000       0.87203000
H        2.57107000       3.43534000       1.64383000
20
Properties=species:S:1:pos:R:3 energy=-1937.27 pbc="F F F"
C        0.98270000       0.01244000       0.00777000
C        2.50066000       0.01684000       0.04269000
C        3.08144000       1.12342000       0.92084000
C        4.51130000       0.65236000       1.13594000
C        4.35123000      -0.84628000       1.39844000
N        5.54730000      -1.59370000       1.03581000
C        3.10207000      -1.27501000       0.61334000
H        0.61349000      -0.80772000      -0.61619000
H        0.60429000       0.95194000      -0.40810000
H        0.55868000      -0.10764000       1.01046000
H        2.87405000       0.14928000      -0.98216000
H        2.55206000       1.18962000       1.87847000
H        3.03927000       2.10269000       0.43499000
H        5.10216000       0.84122000       0.23025000
H        4.99821000       1.16960000       1.96839000
H        4.16371000      -0.99976000       2.46847000
H        5.74814000      -1.46264000       0.04484000
H        5.37413000      -2.59117000       1.15537000
H        3.32680000      -1.97744000      -0.19809000
H        2.40344000      -1.78574000       1.28873000
15
Properties=species:S:1:pos:R:3 energy=-1549.69 pbc="F F F"
C        1.03169000       0.07521000       0.08301000
C        2.50953000      -0.01542000      -0.02863000
C        3.27900000      -1.11765000      -0.04301000
C        4.74670000      -0.76435000      -0.19572000
C        4.61913000       0.75477000      -0.28920000
N        5.60381000       1.56344000      -0.47685000
N        3.30691000       1.09068000      -0.15487000
H        0.56940000      -0.91721000       0.09244000
H        0.61677000       0.63088000      -0.76407000
H        0.74846000       0.59009000       1.00643000
H        2.91734000      -2.13230000       0.03439000
H        5.33230000      -1.04862000       0.68123000
H        5.17555000      -1.17227000      -1.11348000
H        6.47963000       1.03652000      -0.54966000
H        2.96138000       2.03385000      -0.23851000
17
Properties=species:S:1:pos:R:3 energy=-1604.17 pbc="F F F"
O        2.63388000      -0.68860000       0.86119000
C        2.25619000       0.16673000      -0.20755000
C        2.86211000       1.54728000      -0.00112000
C        4.38828000       1.49939000       0.01093000
N        4.93659000       2.83143000       0.18042000
C        5.05044000       3.73791000      -0.81808000
N        5.40853000       4.96069000      -0.66907000
H        2.16703000      -1.53324000       0.73207000
H        1.16396000       0.23554000      -0.22746000
H        2.59740000      -0.27584000      -1.14886000
H        2.51173000       1.96269000       0.95203000
H        2.51066000       2.21649000      -0.79527000
H        4.76696000       1.05465000      -0.91678000
H        4.74466000       0.87263000       0.83576000
H        5.03997000       3.14910000       1.13622000
H        4.80671000       3.34769000      -1.82106000
H        5.60682000       5.14006000       0.31699000
16
Properties=species:S:1:pos:R:3 energy=-1555.31 pbc="F F F"
O        2.45719000      -0.87499000      -0.99724000
C        2.07382000      -0.05654000       0.09755000
C        2.76853000       1.30021000       0.04081000
C        4.28783000       1.23883000      -0.09725000
N        4.94953000       0.71803000       1.08326000
C        5.18451000      -0.62115000       1.25667000
O        4.83206000      -1.50046000       0.48506000
H        3.29583000      -1.31213000      -0.73011000
H        2.28668000      -0.58530000       1.03197000
H        0.98948000       0.08555000       0.04617000
H        2.49435000       1.87904000       0.93120000
H        2.38333000       1.84387000      -0.83054000
H        4.67776000       2.25103000      -0.24705000
H        4.58179000       0.64395000      -0.96893000
H        5.27270000       1.36575000       1.79047000
H        5.72157000      -0.82967000       2.19620000
17
Properties=species:S:1:pos:R:3 energy=-1665.06 pbc="F F F"
C        1.06078000       0.07502000       0.01528000
C        2.58154000      -0.05080000      -0.01725000
C        3.04810000      -1.27285000      -0.79688000
C        3.35703000      -0.62161000      -2.10901000
C        3.60215000      -1.42993000      -3.33750000
N        3.41184000       0.67358000      -2.08483000
N        3.18567000       1.03025000      -0.79624000
H        0.75808000       0.99598000       0.52466000
H        0.61934000      -0.76903000       0.55535000
H        0.62926000       0.08944000      -0.99153000
H        2.96915000      -0.06199000       1.00661000
H        2.28790000      -2.04960000      -0.90743000
H        3.97220000      -1.69580000      -0.39256000
H        3.77115000      -0.77706000      -4.19777000
H        2.73420000      -2.06479000      -3.53276000
H        4.48158000      -2.06120000      -3.18509000
H        2.68919000       1.91949000      -0.72070000
15
Properties=species:S:1:pos:R:3 energy=-1465.07 pbc="F F F"
O        3.31509000      -0.49588000      -1.11319000
C        2.12233000      -0.31870000      -0.34879000
C        2.19633000       1.01654000       0.40046000
N        3.31711000       0.99453000       1.35016000
C        3.57691000       2.33182000       1.89845000
C        4.69588000       2.33598000       2.86595000
N        5.58069000       2.36092000       3.61738000
H        3.26565000      -1.38492000      -1.50583000
H        2.02080000      -1.15763000       0.34790000
H        1.26963000      -0.32091000      -1.03467000
H        1.25639000       1.19231000       0.93407000
H        2.34419000       1.81942000      -0.33174000
H        4.14436000       0.66892000       0.83951000
H        2.67742000       2.70157000       2.40436000
H        3.81242000       3.03064000       1.08695000
18
Properties=species:S:1:pos:R:3 energy=-1661.49 pbc="F F F"
O        0.83722000       2.02489000       2.11366000
C        1.14133000       1.27963000       0.93387000
C        1.69984000       2.21956000      -0.14066000
N        2.95583000       2.82903000       0.32575000
C        3.42196000       3.85356000      -0.62234000
C        4.72571000       4.47311000      -0.10565000
O        5.67524000       3.44300000       0.16305000
H        0.56057000       1.37857000       2.78658000
H        0.22007000       0.80743000       0.57890000
H        1.86541000       0.49789000       1.18725000
H        0.96124000       3.00568000      -0.33769000
H        1.87407000       1.65703000      -1.06377000
H        2.75356000       3.26292000       1.23316000
H        2.67167000       4.63901000      -0.76281000
H        3.61865000       3.37560000      -1.58908000
H        4.55543000       5.03075000       0.82116000
H        5.15303000       5.15357000      -0.84789000
H        5.13547000       2.69410000       0.49109000
12
Properties=species:S:1:pos:R:3 energy=-1356.0 pbc="F F F"
O        2.76072000      -1.07640000       0.01093000
C        2.17574000      -0.00031000      -0.00219000
N        2.91158000       1.18839000       0.00278000
C        2.37214000       2.46011000      -0.01058000
C        3.39942000       3.37852000      -0.00028000
C        4.61175000       2.65309000       0.02009000
C        4.28667000       1.31497000       0.02158000
H        1.07763000       0.08840000      -0.01806000
H        1.29999000       2.60483000      -0.02634000
H        3.28686000       4.45550000      -0.00675000
H        5.61545000       3.05920000       0.03239000
H        4.91134000       0.43033000       0.03439000
13
Properties=species:S:1:pos:R:3 energy=-1339.22 pbc="F F F"
O        1.12347000      -0.02678000      -0.57773000
C        2.26961000       0.11217000      -0.17028000
N        2.94249000       1.28866000       0.08153000
C        4.30578000       1.38008000       0.56500000
C        4.55911000       2.86628000       0.67248000
C        3.23911000       3.39256000       0.21059000
N        2.35524000       2.50871000      -0.11263000
H        2.90310000      -0.76465000       0.04399000
H        4.97634000       0.88785000      -0.14653000
H        4.38363000       0.86761000       1.52910000
H        5.35673000       3.21325000       0.01134000
H        4.75920000       3.19325000       1.69560000
H        3.05721000       4.47555000       0.15849000
11
Properties=species:S:1:pos:R:3 energy=-1231.29 pbc="F F F"
O        2.81061000      -1.05541000       0.02083000
C        2.19228000       0.00120000       0.00021000
N        2.89320000       1.20134000       0.00382000
C        2.35033000       2.46629000      -0.01706000
C        3.42170000       3.32801000      -0.00352000
N        4.60129000       2.63494000       0.02492000
C        4.25610000       1.36572000       0.02873000
H        1.09218000       0.05799000      -0.02145000
H        1.28381000       2.63896000      -0.03904000
H        3.40658000       4.41090000      -0.01274000
H        4.93587000       0.52282000       0.04877000
15
Properties=species:S:1:pos:R:3 energy=-1465.91 pbc="F F F"
O        0.78149000       0.70854000      -0.26828000
C        1.96548000       0.86838000      -0.52810000
N        2.92636000       1.01130000       0.43053000
C        4.35756000       1.16460000       0.13751000
C        5.25500000       1.45933000       1.35849000
N        6.24475000       0.49248000       0.82897000
C        5.15898000      -0.15243000       0.05444000
H        2.35706000       0.90981000      -1.55765000
H        2.57632000       0.94769000       1.38026000
H        4.54179000       1.84602000      -0.70322000
H        4.83964000       1.16096000       2.32870000
H        5.61997000       2.48780000       1.43777000
H        6.95852000       0.92576000       0.24126000
H        5.44327000      -0.46749000      -0.95396000
H        4.70825000      -1.00676000       0.57365000
14
Properties=species:S:1:pos:R:3 energy=-1407.7 pbc="F F F"
O        0.97112000       0.54567000       0.83586000
C        1.98270000       0.08686000       0.04478000
O        1.89975000      -1.01265000      -0.49620000
C        3.18043000       1.06136000      -0.08325000
C        2.85973000       2.53446000      -0.42232000
N        2.79488000       2.78540000       1.04372000
C        3.74946000       1.65720000       1.22405000
H        1.19363000       1.43758000       1.19086000
H        3.95548000       0.63173000      -0.73100000
H        1.92358000       2.71818000      -0.95666000
H        3.67108000       3.06944000      -0.93047000
H        3.16208000       3.69624000       1.33063000
H        4.80409000       1.95232000       1.16609000
H        3.59385000       1.07132000       2.13410000
14
Properties=species:S:1:pos:R:3 energy=-1403.59 pbc="F F F"
O        1.37383000      -0.71803000      -0.46946000
C        1.79050000       0.08338000      -1.48253000
O        1.35981000      -0.01392000      -2.62217000
C        2.82432000       1.11678000      -1.04481000
N        3.19076000       0.86565000       0.37205000
C        4.55956000       0.37914000       0.54916000
C        4.20242000       1.80760000       0.85318000
H        1.86312000      -0.43461000       0.33958000
H        2.35539000       2.10316000      -1.12824000
H        3.67779000       1.05414000      -1.72933000
H        5.16857000       0.17118000      -0.32301000
H        4.72376000      -0.28931000       1.38722000
H        4.11842000       2.10184000       1.89285000
H        4.55523000       2.58295000       0.18314000
16
Properties=species:S:1:pos:R:3 energy=-1584.21 pbc="F F F"
O        1.24615000       0.07406000       0.73424000
N        2.37499000      -0.00017000      -0.08878000
C        2.96171000       1.15204000      -0.17012000
C        2.53632000       2.42749000       0.50677000
C        3.28742000       3.45969000      -0.32311000
C        4.59141000       2.76874000      -0.70549000
C        4.19827000       1.32835000      -1.01097000
H        0.87694000      -0.82613000       0.66229000
H        2.88893000       2.41177000       1.54340000
H        1.45670000       2.58344000       0.47667000
H        2.71469000       3.70038000      -1.22724000
H        3.45614000       4.38925000       0.22808000
H        5.07793000       3.24929000      -1.55948000
H        5.29001000       2.79612000       0.13927000
H        3.93611000       1.19448000      -2.06468000
H        4.97747000       0.61709000      -0.72631000
14
Properties=species:S:1:pos:R:3 energy=-1445.43 pbc="F F F"
O        1.04332000       0.09430000      -0.39276000
N        2.36097000      -0.01234000       0.06631000
C        2.93734000       1.14389000       0.10668000
C        4.35820000       1.26706000       0.58226000
C        4.54474000       2.77350000       0.69373000
C        3.32157000       3.35386000       0.05734000
C        2.38849000       2.45851000      -0.27501000
H        0.72735000      -0.82552000      -0.33134000
H        5.02964000       0.83081000      -0.16322000
H        4.49942000       0.76083000       1.54015000
H        5.45639000       3.09955000       0.18301000
H        4.60814000       3.08642000       1.74230000
H        3.20267000       4.42013000      -0.09385000
H        1.42446000       2.61889000      -0.72164000
15
Properties=species:S:1:pos:R:3 energy=-1524.08 pbc="F F F"
C        0.95547000      -0.03215000       0.11773000
C        2.46747000       0.04688000      -0.03296000
C        3.16754000       1.10457000       0.85822000
C        4.16141000      -0.01268000       1.21106000
N        3.14788000      -1.00122000       0.78915000
C        2.88431000       0.03470000      -1.43312000
N        3.23276000       0.01528000      -2.53962000
H        0.65300000      -0.06221000       1.17120000
H        0.55031000      -0.92882000      -0.36608000
H        0.47106000       0.84106000      -0.33442000
H        2.57380000       1.45036000       1.71348000
H        3.59582000       1.97716000       0.35612000
H        5.06795000      -0.01893000       0.59466000
H        4.44928000      -0.07310000       2.26400000
H        3.52229000      -1.78981000       0.26034000
14
Properties=species:S:1:pos:R:3 energy=-1357.53 pbc="F F F"
O        0.89420000       1.14241000      -1.04077000
N        2.23839000       0.76515000      -1.14381000
C        2.89510000       1.29404000      -0.16633000
C        4.34189000       1.02581000      -0.07319000
C        5.26467000       1.37527000      -1.21451000
C        5.29337000       2.18891000       0.04278000
O        6.42543000       1.97281000       0.89552000
H        0.49124000       0.68500000      -1.80263000
H        2.42945000       1.93003000       0.60667000
H        4.58657000       0.13395000       0.49442000
H        4.83193000       1.82049000      -2.10325000
H        6.08706000       0.69892000      -1.41462000
H        4.88155000       3.19250000      -0.00233000
H        7.19881000       2.47636000       0.58655000
16
Properties=species:S:1:pos:R:3 energy=-1558.52 pbc="F F F"
O        0.83860000       0.71040000       0.78894000
N        1.85100000       0.82831000      -0.17097000
C        2.96365000       1.11290000       0.42542000
C        4.23316000       1.29791000      -0.35950000
C        4.76686000       2.69319000      -0.23728000
C        5.90150000       3.00866000       0.70458000
C        6.13522000       3.01609000      -0.78075000
H        0.05950000       0.49434000       0.24319000
H        3.02694000       1.23034000       1.52165000
H        4.03967000       1.07303000      -1.41425000
H        4.95946000       0.56501000       0.01355000
H        3.99617000       3.44271000      -0.38767000
H        6.35042000       2.20628000       1.27897000
H        5.88687000       3.96355000       1.21842000
H        6.27124000       3.97488000      -1.26980000
H        6.72753000       2.21546000      -1.20840000
17
Properties=species:S:1:pos:R:3 energy=-1649.12 pbc="F F F"
C        0.90754000       0.05465000      -0.25723000
C        2.39532000       0.10919000      -0.25070000
C        3.24773000      -0.75659000      -1.13343000
C        2.67780000      -1.74433000      -2.09044000
N        3.08552000       0.67734000      -1.41999000
C        4.16523000       1.48486000      -1.16994000
N        4.49669000       2.51756000      -1.86564000
H        0.49863000       0.95508000       0.21327000
H        0.56027000      -0.81229000       0.31356000
H        0.49121000      -0.00865000      -1.26739000
H        2.78939000       0.40023000       0.71603000
H        4.22324000      -1.05726000      -0.76971000
H        1.81132000      -1.35474000      -2.63538000
H        2.37032000      -2.65088000      -1.55843000
H        3.43387000      -2.02736000      -2.83103000
H        4.77582000       1.19644000      -0.29556000
H        3.80438000       2.60269000      -2.61897000
23
Properties=species:S:1:pos:R:3 energy=-2191.74 pbc="F F F"
C        1.61753000       0.64395000       1.50743000
C        2.97644000       1.32792000       1.44633000
C        3.71713000       0.97357000       0.15221000
C        5.12092000       1.61347000      -0.01812000
C        6.07702000       1.16300000       1.09890000
C        5.69805000       1.15095000      -1.37075000
C        5.03646000       3.14886000      -0.02388000
H        1.10211000       0.90828000       2.43609000
H        1.72471000      -0.44492000       1.47662000
H        0.98527000       0.95187000       0.66866000
H        3.56026000       1.01934000       2.31962000
H        2.82385000       2.40985000       1.51677000
H        3.08756000       1.26607000      -0.69897000
H        3.81549000      -0.11895000       0.09602000
H        5.76657000       1.54338000       2.07728000
H        7.09387000       1.53007000       0.91816000
H        6.12473000       0.07027000       1.16089000
H        5.05572000       1.46228000      -2.20218000
H        5.78997000       0.05970000      -1.40936000
H        6.69385000       1.57430000      -1.54416000
H        4.32377000       3.50218000      -0.77714000
H        6.01075000       3.59568000      -0.25296000
H        4.72277000       3.54196000       0.94845000
14
Properties=species:S:1:pos:R:3 energy=-1370.11 pbc="F F F"
O        0.51017000      -0.28489000      -0.63118000
N        1.50262000      -0.38644000       0.37933000
C        2.59718000      -1.27915000       0.02375000
C        2.07109000      -2.67253000      -0.16505000
C        2.38092000      -3.71540000       0.61732000
C        1.78512000       0.83783000       0.95525000
O        2.81757000       1.13969000       1.54159000
H       -0.20887000      -0.81360000      -0.23557000
H        3.35904000      -1.24377000       0.81064000
H        3.05645000      -0.91577000      -0.90234000
H        1.41650000      -2.83128000      -1.01888000
H        3.04180000      -3.61143000       1.47309000
H        1.97665000      -4.70272000       0.41454000
H        0.93248000       1.53449000       0.88584000
12
Properties=species:S:1:pos:R:3 energy=-1213.21 pbc="F F F"
O        1.96238000      -0.47525000       1.48301000
N        2.48828000       0.31520000       0.42740000
C        3.39566000      -0.42072000      -0.44318000
C        2.70293000      -1.53068000      -1.11515000
C        2.14172000      -2.43903000      -1.66482000
C        2.82909000       1.58511000       0.84625000
O        3.63813000       2.32800000       0.30396000
H        1.07984000      -0.69689000       1.12855000
H        4.22712000      -0.78930000       0.16809000
H        3.81146000       0.26723000      -1.18743000
H        1.64767000      -3.24727000      -2.15422000
H        2.23987000       1.90647000       1.72189000
15
Properties=species:S:1:pos:R:3 energy=-1432.64 pbc="F F F"
O        1.31902000       1.09708000      -1.87548000
N        2.42481000       1.59160000      -1.18037000
C        3.14664000       0.62332000      -0.53317000
N        2.74974000      -0.56117000      -0.22499000
C        4.51417000       1.01953000      -0.12887000
C        5.68741000       0.11453000      -0.42642000
C        5.54040000       1.40751000      -1.16989000
H        0.58248000       1.25429000      -1.25327000
H        2.97360000       2.27341000      -1.70129000
H        1.80455000      -0.66219000      -0.60761000
H        4.55048000       1.54302000       0.82196000
H        5.49206000      -0.81120000      -0.95737000
H        6.46364000       0.03536000       0.32530000
H        6.22888000       2.20919000      -0.92931000
H        5.27865000       1.34363000      -2.21999000
20
Properties=species:S:1:pos:R:3 energy=-1934.12 pbc="F F F"
C        0.99699000       0.01141000      -0.02571000
C        2.51672000       0.01816000       0.03288000
C        3.07255000       1.12735000       0.91129000
C        4.47667000       0.63110000       1.18836000
N        4.33002000      -0.81373000       1.37180000
C        3.11366000      -1.24675000       0.66345000
C        3.41084000      -2.33154000      -0.36564000
H        0.63583000      -0.81034000      -0.65197000
H        0.62412000       0.94957000      -0.44887000
H        0.55803000      -0.10546000       0.97089000
H        2.90755000       0.15145000      -0.98554000
H        2.50450000       1.21914000       1.84481000
H        3.06815000       2.09794000       0.40622000
H        5.12707000       0.83038000       0.32826000
H        4.91607000       1.10420000       2.07089000
H        5.15889000      -1.30117000       1.03687000
H        2.42733000      -1.65737000       1.41419000
H        4.12647000      -1.98477000      -1.11951000
H        2.49597000      -2.63536000      -0.88425000
H        3.83437000      -3.21924000       0.11592000
23
Properties=species:S:1:pos:R:3 energy=-2191.85 pbc="F F F"
C        2.21963000      -0.47433000      -1.12268000
C        3.41275000       0.27673000      -0.55394000
C        3.10441000       1.76414000      -0.37280000
C        4.29697000       2.50668000       0.23566000
C        4.10059000       4.03327000       0.31064000
C        2.90611000       4.43016000       1.17944000
C        5.37302000       4.69301000       0.84854000
H        2.46423000      -1.53363000      -1.25052000
H        1.93092000      -0.07180000      -2.09901000
H        1.35653000      -0.40397000      -0.45294000
H        4.26931000       0.15362000      -1.22702000
H        3.69038000      -0.16657000       0.40948000
H        2.22726000       1.86911000       0.27527000
H        2.84926000       2.20624000      -1.34327000
H        5.18952000       2.29744000      -0.36804000
H        4.49718000       2.10992000       1.23904000
H        3.92778000       4.41412000      -0.70419000
H        2.98634000       4.00179000       2.18376000
H        1.96411000       4.09337000       0.73756000
H        2.84422000       5.51892000       1.27999000
H        5.59162000       4.36036000       1.86898000
H        5.26998000       5.78297000       0.86226000
H        6.23519000       4.44814000       0.21955000
16
Properties=species:S:1:pos:R:3 energy=-1677.24 pbc="F F F"
C        0.96165000       0.03349000      -0.00794000
N        2.40640000       0.01623000      -0.00066000
C        3.21730000       1.11718000       0.00408000
C        4.52241000       0.67722000       0.01059000
C        4.50289000      -0.74591000       0.00978000
C        5.68484000      -1.64330000       0.01527000
C        3.17249000      -1.11932000       0.00260000
H        0.60778000       1.06764000       0.00197000
H        0.60690000      -0.49026000       0.88261000
H        0.61667000      -0.47006000      -0.91404000
H        2.81100000       2.11921000       0.00246000
H        5.39901000       1.31228000       0.01541000
H        5.38563000      -2.69631000       0.02325000
H        6.30056000      -1.45844000       0.90156000
H        6.29885000      -1.47117000      -0.87471000
H        2.71496000      -2.09996000      -0.00042000
15
Properties=species:S:1:pos:R:3 energy=-1634.78 pbc="F F F"
C       -0.00593000       0.02697000      -1.34723000
C        0.03263000      -1.11316000      -0.31945000
C        1.26071000      -0.65407000       0.44972000
C        1.22631000       0.69456000       0.47870000
C       -0.02460000       1.12297000      -0.27095000
C       -1.23869000       0.63159000       0.50065000
C       -1.20397000      -0.71815000       0.47124000
H        0.87837000       0.06394000      -1.99827000
H       -0.90238000       0.01790000      -1.98249000
H        0.05471000      -2.11271000      -0.75044000
H        1.98335000      -1.29577000       0.92828000
H        1.91574000       1.35110000       0.98518000
H       -0.05452000       2.13992000      -0.65909000
H       -1.95142000       1.25158000       1.01951000
H       -1.88357000      -1.39585000       0.96268000
20
Properties=species:S:1:pos:R:3 energy=-1916.86 pbc="F F F"
C        0.94019000       0.84339000      -0.41788000
C        2.27416000       0.14136000      -0.43557000
C        2.94144000      -0.00858000       0.92249000
C        3.58405000       1.29613000       1.40619000
N        4.19859000       1.12098000       2.71986000
C        2.44134000      -0.99159000      -1.42788000
C        3.15567000       0.30915000      -1.65572000
H        0.50273000       0.91326000      -1.42022000
H        1.03883000       1.86151000      -0.02946000
H        0.23282000       0.29862000       0.21655000
H        3.71034000      -0.79152000       0.87999000
H        2.19326000      -0.35135000       1.64910000
H        2.83876000       2.09579000       1.46389000
H        4.35283000       1.62021000       0.69672000
H        3.48102000       0.88009000       3.40239000
H        4.59614000       2.00838000       3.02496000
H        1.61522000      -1.23719000      -2.08624000
H        3.03774000      -1.85284000      -1.14638000
H        4.23274000       0.31945000      -1.52664000
H        2.81011000       0.94355000      -2.46472000
20
Properties=species:S:1:pos:R:3 energy=-1927.48 pbc="F F F"
C        0.97080000       0.00864000       0.03335000
C        2.48823000       0.03294000       0.03143000
C        3.08227000       1.12978000       0.90086000
C        4.49845000       0.62648000       1.10842000
N        4.31248000      -0.80939000       1.33508000
C        5.50413000      -1.58036000       1.00971000
C        3.12693000      -1.24344000       0.57960000
H        0.59742000      -0.81298000      -0.58759000
H        0.56955000       0.94571000      -0.36799000
H        0.57116000      -0.12354000       1.04517000
H        2.83586000       0.18196000      -0.99960000
H        2.55437000       1.20948000       1.85973000
H        3.05755000       2.10812000       0.41031000
H        5.09533000       0.82367000       0.20843000
H        4.98090000       1.11059000       1.96237000
H        5.34840000      -2.64005000       1.23931000
H        6.35474000      -1.24411000       1.61157000
H        5.77560000      -1.49406000      -0.04822000
H        3.36237000      -1.92861000      -0.24452000
H        2.45381000      -1.76973000       1.26552000
15
Properties=species:S:1:pos:R:3 energy=-1645.66 pbc="F F F"
C       -1.48074000       0.82775000       0.52730000
C       -1.16115000      -0.41077000      -0.26666000
C       -0.23983000      -1.41570000       0.29748000
C        1.08083000      -1.20635000       0.45215000
C        1.67148000       0.06602000       0.08529000
C        0.90896000       1.05776000      -0.41039000
C       -0.54191000       0.92686000      -0.64571000
H       -2.47145000       1.25380000       0.41726000
H       -1.07771000       0.92466000       1.52967000
H       -1.92813000      -0.80624000      -0.92321000
H       -0.66415000      -2.37185000       0.59139000
H        1.72679000      -1.97209000       0.86807000
H        2.73761000       0.19920000       0.23697000
H        1.37187000       2.00631000      -0.66700000
H       -0.90682000       1.40673000      -1.54703000
19
Properties=species:S:1:pos:R:3 energy=-1936.61 pbc="F F F"
C       -1.24653000      -0.76807000      -0.52753000
C       -1.25007000       0.76825000      -0.52073000
C       -0.00509000       1.11186000       0.31454000
C        1.25185000       0.77044000      -0.50458000
C        1.25493000      -0.76602000      -0.50595000
C       -0.00266000      -1.11370000       0.30875000
C       -0.01162000      -0.00369000       1.35906000
H       -1.19803000      -1.17534000      -1.54226000
H       -2.15604000      -1.14857000      -0.04902000
H       -2.15936000       1.14016000      -0.03566000
H       -1.20716000       1.18446000      -1.53201000
H       -0.00849000       2.12973000       0.70856000
H        2.15372000       1.14787000      -0.01028000
H        1.21870000       1.18292000      -1.51772000
H        2.15698000      -1.14074000      -0.00957000
H        1.22688000      -1.17682000      -1.52008000
H       -0.00487000      -2.13371000       0.69759000
H       -0.91156000      -0.00630000       1.98290000
H        0.87888000      -0.00428000       1.99630000
19
Properties=species:S:1:pos:R:3 energy=-1804.84 pbc="F F F"
C        1.01120000      -0.01736000       0.00943000
C        2.53019000      -0.01770000       0.05013000
C        3.10235000       1.13974000       0.85431000
C        4.50776000       0.66414000       1.19571000
N        5.46001000       1.01789000       0.13293000
C        4.33281000      -0.85933000       1.33605000
N        3.03734000      -1.21030000       0.73932000
H        0.63644000      -0.86672000      -0.57165000
H        0.63855000       0.90114000      -0.45565000
H        0.58028000      -0.08247000       1.01488000
H        2.92186000       0.00821000      -0.97486000
H        2.53346000       1.29363000       1.78090000
H        3.08750000       2.08347000       0.29838000
H        4.85265000       1.11485000       2.13209000
H        5.19255000       0.55019000      -0.73291000
H        6.38024000       0.64891000       0.37181000
H        5.15020000      -1.41914000       0.86833000
H        4.31316000      -1.13712000       2.39573000
H        3.13735000      -1.98396000       0.08387000
19
Properties=species:S:1:pos:R:3 energy=-1780.77 pbc="F F F"
C        0.99184000       0.10495000      -0.13751000
C        2.47759000       0.05311000      -0.04031000
C        3.32730000      -0.82382000      -0.94730000
C        2.74742000      -1.69811000      -2.01514000
N        3.74751000      -1.84737000      -3.06898000
N        3.27613000       0.63326000      -1.11671000
C        4.48619000       1.30268000      -0.64897000
H        0.61131000       0.96120000       0.42880000
H        0.55507000      -0.80288000       0.28989000
H        0.63597000       0.20672000      -1.16749000
H        2.81318000       0.17973000       0.98375000
H        4.22079000      -1.26358000      -0.51419000
H        1.83377000      -1.27738000      -2.44671000
H        2.50354000      -2.68023000      -1.59847000
H        3.98139000      -0.90869000      -3.39905000
H        3.32064000      -2.32165000      -3.86194000
H        4.25523000       2.34351000      -0.39970000
H        5.23312000       1.31107000      -1.44951000
H        4.94601000       0.84176000       0.23384000
15
Properties=species:S:1:pos:R:3 energy=-1519.84 pbc="F F F"
C        0.94692000      -0.00249000       0.03590000
C        2.46332000       0.00041000       0.10070000
C        3.00097000       0.00424000       1.52005000
C        3.04343000       1.11713000      -0.70718000
N        3.76347000       0.71307000      -1.70186000
N        3.76603000      -0.71475000      -1.69904000
C        3.04745000      -1.11744000      -0.70278000
H        0.58829000      -0.00135000      -1.00031000
H        0.52940000       0.88360000       0.52657000
H        0.53294000      -0.89201000       0.52339000
H        4.09736000       0.00228000       1.53515000
H        2.66554000      -0.88109000       2.07132000
H        2.66878000       0.89451000       2.06531000
H        2.86054000       2.17137000      -0.45881000
H        2.86830000      -2.17133000      -0.45010000
17
Properties=species:S:1:pos:R:3 energy=-1659.1 pbc="F F F"
C        0.92891000       0.02914000      -0.00619000
C        2.45505000      -0.04282000      -0.02729000
C        3.00638000       0.14670000      -1.43322000
C        3.00356000      -1.29527000       0.65900000
N        3.19133000      -0.81291000       2.02527000
N        3.43203000       0.52142000       2.05657000
C        3.00877000       0.98223000       0.92467000
H        0.52976000      -0.06168000       1.01078000
H        0.49095000      -0.77197000      -0.61144000
H        0.57549000       0.98733000      -0.40455000
H        4.10187000       0.18458000      -1.43277000
H        2.65510000       1.08813000      -1.87088000
H        2.69550000      -0.67173000      -2.09128000
H        3.97058000      -1.59813000       0.24056000
H        2.31922000      -2.14781000       0.61961000
H        3.88612000      -1.34749000       2.54835000
H        3.02321000       2.05024000       0.66261000
17
Properties=species:S:1:pos:R:3 energy=-1653.74 pbc="F F F"
C        1.23291000      -0.23703000      -0.38078000
C        2.63239000      -0.01898000       0.07721000
C        3.79162000      -0.54142000      -0.74314000
N        3.56351000       0.89104000      -0.58065000
C        3.13930000       1.65825000      -1.64666000
C        2.22797000       2.82738000      -1.34855000
N        3.48970000       1.48744000      -2.88190000
H        0.58476000       0.56624000      -0.01737000
H        0.85422000      -1.18188000       0.02265000
H        1.14718000      -0.28298000      -1.47132000
H        2.72609000      -0.01259000       1.15581000
H        3.58371000      -0.96400000      -1.71586000
H        4.67378000      -0.89155000      -0.22720000
H        2.08300000       2.94824000      -0.27174000
H        1.25831000       2.65900000      -1.82575000
H        2.66790000       3.74361000      -1.75290000
H        4.15690000       0.71458000      -2.93175000
17
Properties=species:S:1:pos:R:3 energy=-1782.46 pbc="F F F"
C        0.86256000      -1.23843000       0.86049000
C        1.12909000      -0.41671000      -0.37352000
C        0.99381000       1.08036000      -0.40352000
C       -0.24843000       1.63019000       0.31372000
C       -1.47917000       0.78297000       0.14431000
C       -1.39306000      -0.52797000      -0.12836000
C       -0.12534000      -1.25058000      -0.28256000
H        1.46250000      -2.12892000       1.01426000
H        0.59820000      -0.73359000       1.78251000
H        1.91763000      -0.75851000      -1.03523000
H        1.89457000       1.53959000       0.01941000
H        0.95197000       1.38842000      -1.45623000
H       -0.04568000       1.72577000       1.38746000
H       -0.44922000       2.64154000      -0.05844000
H       -2.44883000       1.25323000       0.27796000
H       -2.30859000      -1.10672000      -0.22906000
H       -0.17536000      -2.14521000      -0.89434000
18
Properties=species:S:1:pos:R:3 energy=-1762.56 pbc="F F F"
C        0.84325000       0.10026000       0.17554000
C        2.35480000       0.02440000      -0.02343000
C        3.14989000       0.97729000       0.92018000
N        4.10566000      -0.11791000       1.19564000
C        3.07601000      -1.09696000       0.78133000
C        2.74729000       0.13773000      -1.47293000
C        2.51270000      -0.85686000      -2.33836000
H        0.57596000       0.05979000       1.23778000
H        0.33253000      -0.73445000      -0.31762000
H        0.43851000       1.03500000      -0.22904000
H        2.60655000       1.30273000       1.81634000
H        3.59863000       1.86601000       0.46413000
H        4.90652000      -0.10819000       0.56235000
H        3.46672000      -1.94774000       0.21405000
H        2.50245000      -1.49688000       1.62704000
H        3.21910000       1.05620000      -1.81154000
H        2.03649000      -1.78493000      -2.03809000
H        2.79540000      -0.75820000      -3.38219000
16
Properties=species:S:1:pos:R:3 energy=-1609.81 pbc="F F F"
C        0.89305000      -0.01958000       0.12958000
C        2.40751000      -0.00486000      -0.03954000
C        3.14685000       1.03000000       0.85063000
N        4.13037000      -0.00986000       1.22746000
C        3.16379000      -1.05381000       0.81937000
C        2.78328000       0.01930000      -1.45030000
C        3.09014000       0.03906000      -2.61227000
H        0.60665000      -0.03813000       1.18725000
H        0.45073000      -0.90318000      -0.34452000
H        0.43655000       0.87100000      -0.31723000
H        2.56969000       1.40028000       1.70700000
H        3.57924000       1.89669000       0.33927000
H        4.96163000       0.00582000       0.63358000
H        3.61011000      -1.89762000       0.28235000
H        2.59294000      -1.45895000       1.66411000
H        3.36038000       0.05652000      -3.64261000
19
Properties=species:S:1:pos:R:3 energy=-1786.04 pbc="F F F"
C        1.06429000       0.09810000      -0.10219000
C        2.55333000       0.04228000      -0.05508000
C        3.38031000      -0.68767000      -1.08229000
N        2.75448000      -1.40114000      -2.19676000
C        3.44551000       0.83490000      -0.99855000
C        2.85334000       1.66898000      -2.11017000
N        4.65843000       1.44067000      -0.40235000
H        0.70311000       0.90535000       0.54408000
H        0.64573000      -0.84244000       0.27248000
H        0.65754000       0.26634000      -1.10264000
H        2.87771000      -0.06290000       0.97636000
H        4.25728000      -1.21262000      -0.70400000
H        1.91629000      -0.93395000      -2.53349000
H        2.46036000      -2.33188000      -1.90448000
H        1.97977000       1.21753000      -2.58578000
H        3.60172000       1.83282000      -2.89506000
H        2.54817000       2.64754000      -1.72361000
H        5.06376000       0.83830000       0.31173000
H        4.42305000       2.31619000       0.06302000
17
Properties=species:S:1:pos:R:3 energy=-1622.4 pbc="F F F"
C        0.87658000      -0.16157000      -0.11264000
C        2.36592000       0.10555000      -0.07667000
C        2.85974000       1.19403000       0.90030000
N        4.06706000       0.34782000       1.14316000
C        3.22911000      -0.83728000       0.78944000
N        4.53960000       0.36195000       2.41124000
C        5.75862000       0.78037000       2.46179000
H        0.66217000      -1.06923000      -0.68584000
H        0.34829000       0.67017000      -0.58970000
H        0.46314000      -0.29166000       0.89302000
H        2.77148000       0.23450000      -1.09071000
H        2.22407000       1.34481000       1.78255000
H        3.07203000       2.16703000       0.44773000
H        3.76009000      -1.62073000       0.24072000
H        2.70319000      -1.29382000       1.63823000
H        6.27165000       0.84330000       3.43445000
H        6.33961000       1.08888000       1.57401000
17
Properties=species:S:1:pos:R:3 energy=-1775.28 pbc="F F F"
C       -1.08965000      -0.00612000      -1.02391000
C       -0.61618000       1.04401000       0.03423000
C       -1.03728000      -0.03386000       1.08647000
C       -0.55567000      -1.06088000       0.00497000
C        0.93470000      -1.18638000      -0.03361000
C        1.62571000      -0.03387000      -0.03563000
C        0.90374000       1.29402000      -0.00036000
H       -2.17531000      -0.03663000      -1.18010000
H       -0.60282000       0.02839000      -2.00326000
H       -1.19596000       1.97169000       0.06078000
H       -0.50244000      -0.02485000       2.04102000
H       -2.11386000      -0.06922000       1.29545000
H       -1.06633000      -2.02737000       0.00493000
H        1.40940000      -2.16019000      -0.05813000
H        2.71096000      -0.03465000      -0.06251000
H        1.16857000       1.88034000      -0.88667000
H        1.21264000       1.85718000       0.88670000
18
Properties=species:S:1:pos:R:3 energy=-1789.96 pbc="F F F"
C        0.97248000       0.05260000       0.00498000
C        2.49290000      -0.01265000       0.02347000
C        3.10630000       1.09102000       0.88536000
N        4.47298000       0.62584000       1.17483000
C        4.31958000      -0.81768000       1.42807000
C        3.10672000      -1.23754000       0.64815000
C        2.65137000      -2.49534000       0.57220000
H        0.55348000      -0.71341000      -0.65592000
H        0.63415000       1.02783000      -0.36132000
H        0.54982000      -0.09724000       1.00472000
H        2.87367000       0.08064000      -1.00240000
H        2.55905000       1.23062000       1.82663000
H        3.12447000       2.05338000       0.36316000
H        5.03215000       0.72840000       0.32770000
H        5.21896000      -1.35434000       1.10969000
H        4.16359000      -0.98311000       2.49970000
H        1.76220000      -2.74793000       0.00443000
H        3.16303000      -3.30854000       1.07862000
15
Properties=species:S:1:pos:R:3 energy=-1558.05 pbc="F F F"
C        0.95730000       0.05610000      -0.00771000
N        2.39485000      -0.02473000      -0.00087000
C        3.26176000       1.02633000       0.00313000
N        4.50991000       0.61582000       0.00917000
C        4.44535000      -0.75899000       0.00912000
C        5.68341000      -1.56792000       0.01504000
C        3.13161000      -1.17546000       0.00281000
H        0.64803000       1.10437000       0.00283000
H        0.57786000      -0.45225000       0.88231000
H        0.58794000      -0.43174000      -0.91328000
H        2.94146000       2.06002000       0.00140000
H        5.45830000      -2.63895000       0.02337000
H        6.28345000      -1.33805000       0.90082000
H        6.28288000      -1.35156000      -0.87451000
H        2.68223000      -2.15814000       0.00070000
15
Properties=species:S:1:pos:R:3 energy=-1643.64 pbc="F F F"
C        0.98098000      -1.36740000       0.09571000
C       -0.50529000      -1.51193000       0.01596000
C       -1.48681000      -0.60543000      -0.03217000
C       -1.39331000       0.82775000       0.00156000
C       -0.30400000       1.60024000       0.00156000
C        1.07920000       1.21358000      -0.03262000
C        1.60993000      -0.01271000       0.01555000
H        1.40564000      -1.96696000      -0.71984000
H        1.31473000      -1.83805000       1.02885000
H       -0.82301000      -2.55500000      -0.00539000
H       -2.50930000      -0.97913000      -0.08900000
H       -2.35916000       1.33203000       0.02732000
H       -0.46054000       2.67876000       0.02712000
H        1.77057000       2.05506000      -0.08983000
H        2.69954000      -0.05868000      -0.00637000
19
Properties=species:S:1:pos:R:3 energy=-1781.18 pbc="F F F"
C        0.88091000      -0.10529000       0.13881000
C        2.39523000      -0.01294000      -0.04214000
C        2.83275000      -0.05169000      -1.51325000
N        2.34496000       1.10616000      -2.26250000
C        3.08855000       1.05953000       0.83581000
N        4.08293000       0.05169000       1.26131000
C        3.17058000      -1.02734000       0.84028000
H        0.60481000      -0.16237000       1.19773000
H        0.48206000      -0.99759000      -0.35524000
H        0.37577000       0.77152000      -0.27828000
H        2.46900000      -0.96842000      -1.99198000
H        3.92621000      -0.06688000      -1.59051000
H        1.33048000       1.05682000      -2.35028000
H        2.70488000       1.06345000      -3.21609000
H        2.48409000       1.43775000       1.66930000
H        3.51461000       1.92028000       0.31067000
H        4.94344000       0.09428000       0.71477000
H        3.65781000      -1.85486000       0.31450000
H        2.60102000      -1.45060000       1.67667000
15
Properties=species:S:1:pos:R:3 energy=-1552.82 pbc="F F F"
C        0.93166000       0.04674000      -0.00644000
C        2.41584000       0.00485000      -0.00005000
C        3.27110000       1.09318000       0.00109000
N        4.56184000       0.63010000       0.00887000
C        4.55494000      -0.73999000       0.01224000
C        3.24625000      -1.14281000       0.00743000
N        2.84799000      -2.41845000       0.01016000
H        0.56254000       1.07709000       0.00172000
H        0.53078000      -0.46358000       0.87429000
H        0.53991000      -0.44612000      -0.90201000
H        3.06904000       2.15539000      -0.00231000
H        5.39061000       1.20961000       0.01213000
H        5.48011000      -1.29694000       0.01892000
H        1.87162000      -2.68655000      -0.03029000
H        3.50244000      -3.19213000      -0.02058000
17
Properties=species:S:1:pos:R:3 energy=-1779.98 pbc="F F F"
C        1.11463000       1.20083000      -0.31865000
C       -0.18141000       1.55909000       0.40120000
C       -1.38164000       0.83211000      -0.11255000
C       -1.51279000      -0.49887000      -0.19662000
C       -0.54544000      -1.58000000       0.18436000
C        0.93113000      -1.30653000       0.15788000
C        1.62868000      -0.18501000      -0.07585000
H        1.88494000       1.90035000       0.03168000
H        1.02083000       1.36438000      -1.39925000
H       -0.08872000       1.39961000       1.48273000
H       -0.35729000       2.63420000       0.26778000
H       -2.22374000       1.45287000      -0.41296000
H       -2.47128000      -0.87416000      -0.55538000
H       -0.71556000      -2.41467000      -0.50893000
H       -0.81719000      -1.95041000       1.18010000
H        1.52324000      -2.20643000       0.33242000
H        2.71521000      -0.26943000      -0.08821000
19
Properties=species:S:1:pos:R:3 energy=-1922.25 pbc="F F F"
C        1.71062000      -0.14406000      -0.04080000
C        0.82151000      -1.25326000       0.51395000
C       -0.43223000      -1.53803000      -0.30988000
C       -1.54002000      -0.53304000      -0.16654000
C       -1.43514000       0.76250000       0.16962000
C       -0.17584000       1.56019000       0.35639000
C        0.99651000       1.11831000      -0.51689000
H        2.30049000      -0.53950000      -0.87779000
H        2.43791000       0.12798000       0.73517000
H        1.42195000      -2.16994000       0.57180000
H        0.54046000      -1.01553000       1.54795000
H       -0.83212000      -2.50192000       0.03281000
H       -0.18472000      -1.66476000      -1.37033000
H       -2.54129000      -0.93289000      -0.32046000
H       -2.35854000       1.32935000       0.28440000
H        0.10160000       1.57530000       1.41703000
H       -0.41142000       2.59744000       0.08346000
H        1.73443000       1.92933000      -0.55753000
H        0.65409000       0.97541000      -1.54994000
19
Properties=species:S:1:pos:R:3 energy=-1917.0 pbc="F F F"
C       -0.92068000       0.00119000      -1.15376000
C       -0.60427000       1.05040000      -0.04133000
C       -1.20366000      -0.00145000       0.93594000
C       -0.60444000      -1.05107000      -0.04390000
C        0.88847000      -1.27668000       0.21850000
C        1.68136000      -0.00049000      -0.08568000
C        0.88933000       1.27489000       0.22162000
H       -1.96572000       0.00175000      -1.48860000
H       -0.27914000       0.00216000      -2.03898000
H       -1.16801000       1.98637000      -0.10050000
H       -0.81749000      -0.00280000       1.95918000
H       -2.30000000      -0.00131000       0.98151000
H       -1.16859000      -1.98665000      -0.10550000
H        1.04068000      -1.57716000       1.26231000
H        1.26463000      -2.09439000      -0.40726000
H        1.92714000       0.00062000      -1.15574000
H        2.64121000      -0.00143000       0.44169000
H        1.26527000       2.09395000      -0.40203000
H        1.04121000       1.57276000       1.26612000
20
Properties=species:S:1:pos:R:3 energy=-1907.96 pbc="F F F"
C        1.06109000       0.05147000      -0.07517000
C        2.54844000       0.06399000      -0.03724000
N        3.41336000      -0.62175000      -0.99088000
C        2.77917000      -1.30977000      -2.10268000
C        3.42299000       0.84816000      -1.02077000
C        2.81969000       1.62633000      -2.16179000
C        4.66704000       1.49873000      -0.45776000
H        0.67045000       0.73662000       0.68594000
H        0.68458000      -0.95022000       0.15974000
H        0.63010000       0.36070000      -1.03076000
H        2.88938000      -0.01073000       0.99160000
H        2.71895000      -2.37853000      -1.86798000
H        3.39886000      -1.21452000      -3.00123000
H        1.76754000      -0.98652000      -2.35817000
H        1.92080000       1.18018000      -2.59242000
H        3.55042000       1.73229000      -2.97243000
H        2.54764000       2.63273000      -1.82257000
H        5.10373000       0.91822000       0.36280000
H        4.43124000       2.49653000      -0.07256000
H        5.42990000       1.60152000      -1.23722000
16
Properties=species:S:1:pos:R:3 energy=-1610.97 pbc="F F F"
C        0.99343000       0.03473000       0.05042000
C        2.50880000      -0.02845000       0.01437000
N        3.14680000       0.99864000       0.88789000
C        4.19252000      -0.00124000       1.22468000
C        3.18898000      -1.12395000       0.87939000
C        3.71930000      -2.26960000       0.16938000
C        4.15498000      -3.22266000      -0.41520000
H        0.56475000      -0.81071000      -0.49772000
H        0.63091000       0.95441000      -0.42086000
H        0.60414000       0.00067000       1.07383000
H        2.88028000       0.02253000      -1.01926000
H        2.57718000       1.26774000       1.69116000
H        5.07308000       0.06397000       0.57340000
H        4.52922000       0.02754000       2.26550000
H        2.58728000      -1.41752000       1.75166000
H        4.54215000      -4.06934000      -0.93492000
17
Properties=species:S:1:pos:R:3 energy=-1754.39 pbc="F F F"
C        0.83001000       0.06161000      -0.50585000
C        2.12902000      -0.06051000       0.23253000
C        2.58750000      -1.44937000       0.87183000
C        3.93985000      -0.61850000       0.92744000
C        3.51245000      -0.21628000      -0.54833000
C        3.62073000       0.57963000       1.75978000
C        2.41722000       0.95535000       1.30227000
H       -0.02356000      -0.02224000       0.17498000
H        0.73002000      -0.72734000      -1.25864000
H        0.75616000       1.02332000      -1.02426000
H        2.57311000      -2.32752000       0.21570000
H        2.13878000      -1.72013000       1.83347000
H        4.88393000      -1.13229000       1.09637000
H        3.95451000       0.69999000      -0.95391000
H        3.56736000      -1.00225000      -1.31074000
H        4.21954000       1.02596000       2.53705000
H        1.80160000       1.78223000       1.61892000
15
Properties=species:S:1:pos:R:3 energy=-1522.62 pbc="F F F"
C        1.20466000      -0.12868000       0.07316000
C        2.67473000       0.16610000       0.05067000
N        3.11365000       1.31238000      -0.40292000
C        4.57755000       1.29927000      -0.15335000
C        4.84617000      -0.04653000       0.45014000
C        4.59186000      -1.29406000      -0.33071000
N        3.56394000      -0.76090000       0.57083000
H        1.03403000      -1.20809000       0.05961000
H        0.71985000       0.32344000      -0.79580000
H        0.77122000       0.29198000       0.98413000
H        5.12169000       1.43354000      -1.09291000
H        4.83902000       2.10455000       0.53967000
H        5.43649000      -0.05410000       1.35259000
H        5.01813000      -2.22219000       0.02168000
H        4.34155000      -1.23809000      -1.38131000
20
Properties=species:S:1:pos:R:3 energy=-1938.48 pbc="F F F"
C        0.96744000       0.01126000      -0.02749000
C        2.49362000       0.00017000       0.00574000
N        2.99115000       0.09141000      -1.37119000
C        3.06337000       1.12928000       0.87490000
C        4.48020000       0.67231000       1.19773000
C        4.37800000      -0.84304000       1.34007000
C        3.05425000      -1.25785000       0.68691000
H        0.54866000      -0.06755000       0.98240000
H        0.57636000      -0.82927000      -0.61229000
H        0.58509000       0.93853000      -0.46943000
H        4.00980000       0.07178000      -1.38700000
H        2.71738000       0.98494000      -1.77745000
H        2.49052000       1.22726000       1.80544000
H        3.05289000       2.10527000       0.37777000
H        5.16196000       0.92621000       0.37719000
H        4.86903000       1.14600000       2.10468000
H        5.23254000      -1.33897000       0.86893000
H        4.37448000      -1.13097000       2.39781000
H        3.19962000      -2.09003000      -0.01324000
H        2.37033000      -1.62039000       1.46320000
18
Properties=species:S:1:pos:R:3 energy=-1797.46 pbc="F F F"
C        0.97793000       0.00631000      -0.02572000
C        2.51736000      -0.00005000       0.00435000
N        2.93396000       0.00705000       1.41206000
C        3.06825000      -1.22420000      -0.76893000
C        3.33423000      -0.67226000      -2.13499000
C        3.33927000       0.66555000      -2.13419000
C        3.07687000       1.22075000      -0.76757000
H        0.59310000       0.01181000      -1.05208000
H        0.57485000       0.89146000       0.48098000
H        0.56702000      -0.87944000       0.47399000
H        3.95246000      -0.00819000       1.46407000
H        2.61655000      -0.84833000       1.86679000
H        2.35099000      -2.05116000      -0.80027000
H        4.00812000      -1.59874000      -0.34589000
H        3.53381000      -1.28823000      -3.00066000
H        3.54248000       1.28220000      -2.99811000
H        4.01955000       1.58877000      -0.34542000
H        2.36531000       2.05276000      -0.79988000
19
Properties=species:S:1:pos:R:3 energy=-1786.25 pbc="F F F"
C        0.90469000      -0.01765000       0.19532000
C        2.40077000       0.00587000      -0.02537000
N        2.74723000       0.04464000      -1.45279000
C        3.23511000       1.07545000       0.72071000
C        4.14697000      -0.02749000       1.28789000
N        5.43317000      -0.00488000       0.58965000
C        3.23854000      -1.10187000       0.65926000
H        0.66188000      -0.05121000       1.26223000
H        0.44891000      -0.89515000      -0.27498000
H        0.42875000       0.87563000      -0.22247000
H        3.73303000       0.19921000      -1.64967000
H        2.25779000       0.77774000      -1.96535000
H        2.66973000       1.59022000       1.51007000
H        3.71031000       1.85492000       0.11169000
H        4.22679000      -0.04977000       2.37782000
H        5.37266000      -0.10437000      -0.42157000
H        6.06140000      -0.75022000       0.88967000
H        3.71557000      -1.84282000       0.00665000
H        2.67855000      -1.66086000       1.42011000
13
Properties=species:S:1:pos:R:3 energy=-1384.5 pbc="F F F"
C        0.97137000       0.09328000      -0.00656000
C        2.45895000       0.04010000      -0.00075000
N        3.24319000       1.08766000       0.00475000
N        4.61686000       0.61984000       0.00843000
C        4.59626000      -0.67926000       0.00473000
C        3.23532000      -1.19722000      -0.00193000
C        2.84706000      -2.47174000      -0.00736000
H        0.63163000       1.13238000       0.00501000
H        0.58033000      -0.41771000       0.87750000
H        0.58861000      -0.39534000      -0.90673000
H        5.47048000      -1.34462000       0.00588000
H        1.79664000      -2.74286000      -0.01219000
H        3.57082000      -3.28012000      -0.00744000
15
Properties=species:S:1:pos:R:3 energy=-1531.96 pbc="F F F"
C        0.98649000       0.08988000      -0.00669000
C        2.47142000       0.00066000      -0.00059000
N        3.26523000       1.02704000      -0.00748000
N        4.60983000       0.54404000      -0.00019000
C        4.57128000      -0.75236000       0.00971000
C        5.77303000      -1.62833000       0.02004000
C        3.18803000      -1.30197000       0.01095000
H        0.66604000       1.13499000       0.00196000
H        0.58946000      -0.41632000       0.87712000
H        0.59841000      -0.39889000      -0.90416000
H        6.68492000      -1.02523000       0.01206000
H        5.75948000      -2.27250000      -0.86246000
H        5.76030000      -2.25008000       0.91851000
H        2.98566000      -1.88012000      -0.89098000
H        2.98165000      -1.86615000       0.92065000
18
Properties=species:S:1:pos:R:3 energy=-1786.0 pbc="F F F"
C        0.84804000       0.03699000       0.01740000
C        2.16266000       0.11649000       0.26812000
C        3.02790000       1.33961000       0.20318000
C        2.32551000       2.68810000       0.09009000
C        3.38339000       3.67802000       0.55118000
C        4.33554000       2.85964000       1.41251000
N        3.78605000       1.50400000       1.44580000
H        0.32946000      -0.91363000       0.09703000
H        0.25628000       0.90124000      -0.26371000
H        2.67768000      -0.80430000       0.53669000
H        3.73013000       1.21940000      -0.63292000
H        1.45683000       2.75283000       0.75812000
H        1.98631000       2.90171000      -0.92872000
H        3.91712000       4.09443000      -0.31080000
H        2.93330000       4.50785000       1.10530000
H        5.33785000       2.85687000       0.96907000
H        4.41509000       3.26610000       2.42524000
H        4.53590000       0.81848000       1.50037000
20
Properties=species:S:1:pos:R:3 energy=-1914.06 pbc="F F F"
C        0.54796000       0.27965000       0.37014000
C        1.80489000       0.07520000      -0.46335000
C        2.91834000       1.03683000      -0.08949000
C        3.60135000       0.82236000       1.25183000
C        4.26179000      -0.54471000       1.37229000
C        3.74849000       1.62902000      -1.21458000
N        2.74399000       2.43087000      -0.53578000
H       -0.22200000      -0.44062000       0.07377000
H        0.14083000       1.28655000       0.22796000
H        0.74478000       0.14184000       1.43639000
H        1.53901000       0.19275000      -1.52098000
H        2.14991000      -0.95822000      -0.35552000
H        2.87799000       0.95292000       2.06402000
H        4.37598000       1.58498000       1.40667000
H        3.51333000      -1.34190000       1.42961000
H        4.86539000      -0.59287000       2.28290000
H        4.91076000      -0.74838000       0.51607000
H        3.51942000       1.35443000      -2.23755000
H        4.78286000       1.89426000      -1.03619000
H        3.17193000       3.08551000       0.12209000
20
Properties=species:S:1:pos:R:3 energy=-1909.79 pbc="F F F"
C        1.88791000      -0.60577000      -1.34146000
C        2.37794000      -0.07688000      -0.00180000
C        3.18769000       1.21843000      -0.14535000
C        4.50318000       1.02497000      -0.90593000
C        2.37505000       2.47315000      -0.56182000
N        3.03749000       3.23821000       0.51433000
C        3.37131000       1.97231000       1.19980000
H        1.25496000      -1.48588000      -1.18914000
H        2.72115000      -0.90457000      -1.98427000
H        1.30048000       0.14664000      -1.87660000
H        2.98429000      -0.84515000       0.49293000
H        1.50396000       0.09199000       0.63965000
H        5.11284000       1.93532000      -0.90541000
H        4.32121000       0.76167000      -1.95243000
H        5.10135000       0.22812000      -0.45145000
H        1.29052000       2.39254000      -0.42012000
H        2.55944000       2.85393000      -1.57132000
H        3.86130000       3.74725000       0.19301000
H        4.37342000       1.94328000       1.63966000
H        2.65064000       1.71329000       1.98498000
17
Properties=species:S:1:pos:R:3 energy=-1756.5 pbc="F F F"
C        1.32400000       0.26054000       0.32924000
C        2.74615000      -0.06746000       0.11682000
C        3.35218000      -1.11983000      -0.45538000
C        4.80244000      -0.78788000      -0.30014000
C        4.91255000       0.75702000      -0.65717000
C        3.89322000       0.78831000       0.56081000
C        4.93873000      -0.23445000       1.18353000
H        0.67559000      -0.56437000       0.01932000
H        1.04662000       1.14776000      -0.24682000
H        1.13180000       0.46157000       1.38794000
H        2.91625000      -1.99295000      -0.91055000
H        5.54017000      -1.48752000      -0.68769000
H        4.52218000       1.06566000      -1.63270000
H        5.88659000       1.23372000      -0.50002000
H        3.68566000       1.72759000       1.07002000
H        5.91475000       0.16981000       1.47392000
H        4.57291000      -0.88387000       1.98548000
16
Properties=species:S:1:pos:R:3 energy=-1681.39 pbc="F F F"
C        2.28884000      -0.55070000      -1.40249000
C        2.46214000       0.00252000       0.00362000
C        3.00512000       1.39389000       0.00420000
C        2.27876000       2.56802000      -0.01232000
N        3.15445000       3.62158000      -0.00547000
C        4.43737000       3.14475000       0.01623000
C        4.37801000       1.76966000       0.02324000
H        1.89047000      -1.56938000      -1.36322000
H        3.24426000      -0.57912000      -1.93712000
H        1.59556000       0.06374000      -1.98673000
H        3.13413000      -0.65307000       0.57068000
H        1.49564000      -0.01518000       0.52184000
H        1.21046000       2.74261000      -0.02891000
H        2.89344000       4.59898000      -0.01485000
H        5.28058000       3.82185000       0.02490000
H        5.23142000       1.10365000       0.03939000
20
Properties=species:S:1:pos:R:3 energy=-1908.78 pbc="F F F"
C        1.84204000      -0.10544000       1.38950000
C        1.98255000       0.35015000      -0.05391000
C        3.20764000       1.19087000      -0.25112000
C        3.17589000       2.37601000      -1.18620000
N        3.21599000       2.55982000       0.26302000
C        4.52775000       2.95656000       0.78154000
C        4.46507000       4.40316000       1.24870000
H        0.97580000      -0.76547000       1.49902000
H        1.70348000       0.75039000       2.05959000
H        2.73366000      -0.64871000       1.72163000
H        1.07774000       0.89377000      -0.34899000
H        2.05197000      -0.52834000      -0.70513000
H        4.12233000       0.61178000      -0.18575000
H        2.23952000       2.64110000      -1.66308000
H        4.06010000       2.60184000      -1.76923000
H        5.33723000       2.84950000       0.04774000
H        4.78587000       2.32323000       1.63955000
H        4.21094000       5.07704000       0.42455000
H        5.43610000       4.71101000       1.65065000
H        3.71977000       4.52986000       2.04052000
19
Properties=species:S:1:pos:R:3 energy=-1894.87 pbc="F F F"
C       -1.72021000       0.71065000       0.30706000
C       -1.73083000      -0.72940000      -0.31817000
C       -0.25001000      -0.78277000       0.13726000
C        1.06138000      -1.15265000      -0.51811000
C        2.00252000      -0.03066000      -0.02405000
C        1.07939000       1.09729000       0.48789000
C       -0.24161000       0.74616000      -0.15881000
H       -2.38832000       1.43172000      -0.17011000
H       -1.86286000       0.74436000       1.39303000
H       -1.88097000      -0.76122000      -1.40352000
H       -2.40476000      -1.44238000       0.16297000
H       -0.19791000      -1.04670000       1.20881000
H        1.41801000      -2.14156000      -0.21569000
H        0.98497000      -1.13499000      -1.61120000
H        2.65643000      -0.37995000       0.78185000
H        2.64041000       0.31448000      -0.84459000
H        1.01272000       1.07133000       1.58189000
H        1.44368000       2.08469000       0.19057000
H       -0.19354000       1.00958000      -1.22962000
15
Properties=species:S:1:pos:R:3 energy=-1475.49 pbc="F F F"
C        1.44119000      -0.51567000      -0.70084000
C        1.81271000       0.73669000      -0.40352000
C        3.17323000       1.27325000      -0.49519000
C        3.70239000       1.69321000      -1.83431000
N        3.30661000       2.69551000      -0.84612000
N        4.44115000       3.14468000      -0.26986000
C        4.33826000       4.38551000       0.07063000
H        0.40716000      -0.82842000      -0.59733000
H        2.16005000      -1.24933000      -1.05111000
H        1.04768000       1.42640000      -0.04975000
H        3.87434000       0.87338000       0.23068000
H        3.05914000       1.61994000      -2.70167000
H        4.75782000       1.55873000      -2.03745000
H        5.19042000       4.88815000       0.55435000
H        3.43153000       4.99469000      -0.09390000
17
Properties=species:S:1:pos:R:3 energy=-1676.8 pbc="F F F"
C        3.14322000      -1.13802000      -0.52931000
C        2.46639000       0.07047000       0.09976000
C        3.34296000       1.31617000       0.05513000
C        3.60709000       1.86547000      -1.36437000
N        3.48970000       3.35302000      -1.26778000
C        2.94020000       3.53418000      -0.10732000
N        2.66531000       2.44766000       0.66140000
H        2.50000000      -2.01901000      -0.43990000
H        4.09170000      -1.35895000      -0.03006000
H        3.34330000      -0.97482000      -1.59234000
H        2.22067000      -0.16344000       1.14347000
H        1.51047000       0.25561000      -0.40670000
H        4.29428000       1.14499000       0.57284000
H        2.87401000       1.50500000      -2.09532000
H        4.60864000       1.59013000      -1.71068000
H        2.70113000       4.51756000       0.32777000
H        2.73412000       2.55523000       1.66609000
15
Properties=species:S:1:pos:R:3 energy=-1511.5 pbc="F F F"
C        0.87282000       0.26727000      -0.21777000
C        2.18866000       0.10622000      -0.02158000
C        3.23802000       1.17834000       0.08474000
C        3.76144000       1.37589000       1.50644000
N        3.98128000       2.81998000       1.54927000
N        3.19373000       3.48059000       0.66531000
C        2.78647000       2.59014000      -0.18095000
H        0.21555000      -0.59650000      -0.27686000
H        0.40538000       1.24226000      -0.31214000
H        2.56364000      -0.91276000       0.07314000
H        4.05022000       0.96567000      -0.62060000
H        4.68648000       0.82093000       1.68856000
H        3.02066000       1.08765000       2.26176000
H        3.92031000       3.20703000       2.49216000
H        2.19111000       2.83682000      -1.07154000
16
Properties=species:S:1:pos:R:3 energy=-1621.14 pbc="F F F"
C        2.05823000      -0.62674000      -1.20172000
C        2.14884000       0.30045000      -0.23787000
C        3.28619000       1.19068000       0.00351000
N        3.73440000       2.05212000      -1.08569000
C        3.05450000       2.68620000       0.03719000
C        3.87482000       3.51314000       0.92108000
C        3.58498000       3.82747000       2.19065000
H        1.17615000      -1.25145000      -1.29540000
H        2.86671000      -0.78096000      -1.90998000
H        1.31351000       0.39802000       0.45327000
H        4.07236000       0.77909000       0.62879000
H        3.10445000       1.97169000      -1.88409000
H        2.06236000       3.07281000      -0.17277000
H        4.79750000       3.90750000       0.49694000
H        2.68030000       3.46884000       2.67036000
H        4.25414000       4.45258000       2.77320000
14
Properties=species:S:1:pos:R:3 energy=-1465.07 pbc="F F F"
C        1.99467000      -0.59042000      -1.20419000
C        2.11306000       0.34022000      -0.24729000
C        3.24614000       1.25067000      -0.06644000
N        3.55143000       2.18747000      -1.14153000
C        2.98929000       2.73457000       0.08996000
C        3.84999000       3.49696000       0.94481000
C        4.56905000       4.13824000       1.66065000
H        1.12229000      -1.23373000      -1.25484000
H        2.77150000      -0.73045000      -1.95027000
H        1.31032000       0.42243000       0.48384000
H        4.10691000       0.82443000       0.43970000
H        2.83797000       2.14471000      -1.86863000
H        1.96611000       3.08904000       0.01509000
H        5.21465000       4.70737000       2.28853000
11
Properties=species:S:1:pos:R:3 energy=-1221.89 pbc="F F F"
C        0.96966000       0.12730000      -0.00067000
C        2.16816000       0.04493000       0.00018000
C        3.59027000      -0.06072000       0.00116000
N        4.27782000       1.03338000      -0.00699000
N        5.66214000       0.65169000      -0.00407000
C        5.71767000      -0.64208000       0.00564000
C        4.38316000      -1.30075000       0.01053000
H       -0.09230000       0.21367000      -0.00152000
H        6.64868000      -1.22421000       0.01000000
H        4.23320000      -1.89856000      -0.88877000
H        4.23316000      -1.88492000       0.91872000
19
Properties=species:S:1:pos:R:3 energy=-1899.95 pbc="F F F"
C        0.79640000      -0.02228000       0.25639000
C        2.29122000       0.06942000       0.02096000
C        3.06556000       1.07893000       0.90240000
C        4.16347000       0.01239000       1.11663000
C        3.15427000      -1.05688000       0.63701000
C        5.43813000       0.10517000       0.34968000
C        5.53973000       0.63616000      -0.87457000
H        0.37092000      -0.86540000      -0.29727000
H        0.29700000       0.89028000      -0.08459000
H        0.56151000      -0.16070000       1.31678000
H        2.49943000       0.20670000      -1.04870000
H        2.54928000       1.34790000       1.83291000
H        3.35753000       2.00854000       0.40516000
H        4.40605000      -0.10476000       2.18194000
H        3.52454000      -1.79815000      -0.07770000
H        2.67343000      -1.59244000       1.46490000
H        6.32737000      -0.29500000       0.83118000
H        4.69389000       1.04985000      -1.41192000
H        6.50126000       0.66859000      -1.37809000
20
Properties=species:S:1:pos:R:3 energy=-1913.58 pbc="F F F"
C        1.24671000       0.01137000      -0.65091000
C        2.74753000       0.06880000      -0.88475000
C        3.48829000       0.59328000       0.34530000
C        4.98636000       0.63106000       0.07806000
C        5.52587000       1.75538000      -0.83629000
C        6.65771000       1.86076000       0.19988000
N        5.73025000       1.27893000       1.19372000
H        0.73865000      -0.37386000      -1.54027000
H        0.84582000       1.00691000      -0.43508000
H        1.00542000      -0.64648000       0.19016000
H        2.95357000       0.71023000      -1.75031000
H        3.11288000      -0.93362000      -1.14030000
H        3.28168000      -0.06378000       1.19965000
H        3.11153000       1.58987000       0.60609000
H        5.39277000      -0.35913000      -0.17374000
H        4.89288000       2.64866000      -0.89513000
H        5.82456000       1.45650000      -1.84400000
H        7.52583000       1.22804000      -0.01817000
H        6.99971000       2.87368000       0.42724000
H        6.16038000       0.63180000       1.85230000
20
Properties=species:S:1:pos:R:3 energy=-1917.04 pbc="F F F"
C        0.95576000      -0.13002000      -0.25814000
C        2.47585000      -0.11565000      -0.23421000
C        3.01703000       1.25206000       0.18872000
C        4.53563000       1.28038000       0.22042000
N        5.19652000       1.21404000      -1.09223000
C        5.19907000       2.12418000       1.28404000
C        5.22911000       0.62741000       1.39179000
H        0.59088000      -1.11864000      -0.55338000
H        0.56856000       0.60269000      -0.97306000
H        0.54539000       0.10236000       0.72954000
H        2.85280000      -0.38240000      -1.22849000
H        2.83263000      -0.88852000       0.45698000
H        2.61205000       1.50745000       1.17633000
H        2.65934000       2.02529000      -0.50277000
H        6.21059000       1.18695000      -0.99732000
H        4.98879000       2.05115000      -1.63612000
H        4.57406000       2.66785000       1.98413000
H        6.12724000       2.63252000       1.05027000
H        6.17049000       0.11860000       1.21955000
H        4.62095000       0.16124000       2.15898000
19
Properties=species:S:1:pos:R:3 energy=-1897.47 pbc="F F F"
C        0.74014000       1.08089000      -0.40120000
C       -0.49551000       0.29452000      -0.05848000
C        0.84602000      -0.38191000      -0.06672000
C        1.56774000      -0.89938000       1.15481000
C        1.38488000      -0.24199000       2.55099000
C        1.57742000      -1.64651000       3.15811000
C        1.07232000      -2.21370000       1.81710000
H        0.88542000       1.37595000      -1.43385000
H        1.09610000       1.80517000       0.32158000
H       -1.18599000       0.05931000      -0.86104000
H       -0.98028000       0.49850000       0.88834000
H        1.04457000      -1.06237000      -0.89028000
H        2.63868000      -0.96907000       0.90038000
H        0.39286000       0.17844000       2.74236000
H        2.14086000       0.49702000       2.82829000
H        2.62278000      -1.89381000       3.37723000
H        0.96471000      -1.87556000       4.03344000
H        1.56280000      -3.13020000       1.47843000
H       -0.01390000      -2.35588000       1.77864000
18
Properties=species:S:1:pos:R:3 energy=-1767.66 pbc="F F F"
C        1.71991000      -0.10591000       0.45155000
C        2.61386000       0.10146000      -0.77860000
C        2.11631000      -0.57897000      -2.04033000
C        0.98548000      -1.27635000      -2.21675000
C        2.83319000       1.58654000      -0.98639000
C        4.03374000       2.27484000      -0.38262000
N        3.94991000       2.04439000      -1.81980000
H        2.16048000       0.37262000       1.33312000
H        1.59585000      -1.17003000       0.67895000
H        0.72703000       0.33482000       0.30591000
H        3.58035000      -0.36758000      -0.54593000
H        2.78683000      -0.47707000      -2.89482000
H        0.26278000      -1.43290000      -1.42410000
H        0.76041000      -1.71574000      -3.18440000
H        1.90810000       2.14331000      -1.08541000
H        4.77248000       1.68205000       0.14274000
H        3.93430000       3.29938000      -0.04804000
H        3.69354000       2.89878000      -2.31812000
20
Properties=species:S:1:pos:R:3 energy=-1912.58 pbc="F F F"
C        0.80213000      -0.65763000       0.19780000
C        2.28675000      -0.50105000      -0.13748000
C        2.80672000      -1.77780000      -0.80032000
C        2.49537000       0.73896000      -1.02419000
C        3.94538000       1.02724000      -1.28485000
C        4.57651000       0.66728000      -2.60685000
N        4.28112000       2.05463000      -2.26970000
H        0.42086000       0.23395000       0.70576000
H        0.64075000      -1.51404000       0.86089000
H        0.20517000      -0.81413000      -0.70764000
H        2.83393000      -0.36038000       0.80350000
H        2.33311000      -1.94208000      -1.77382000
H        2.60139000      -2.65178000      -0.17242000
H        3.88984000      -1.73364000      -0.95056000
H        2.06419000       1.61330000      -0.51905000
H        1.94556000       0.62066000      -1.96725000
H        4.55233000       1.02016000      -0.38752000
H        3.95857000       0.22916000      -3.38101000
H        5.61987000       0.37940000      -2.62385000
H        5.13035000       2.55382000      -1.99892000
22
Properties=species:S:1:pos:R:3 energy=-2062.4 pbc="F F F"
C        0.97518000       0.74764000       0.12519000
C        2.45552000       0.56120000      -0.16660000
C        3.21333000       1.88617000      -0.08924000
C        4.70311000       1.69121000      -0.37678000
C        5.46457000       3.01653000      -0.30263000
C        6.95264000       2.81338000      -0.58208000
N        7.66204000       4.08458000      -0.49968000
H        0.45291000      -0.21238000       0.06393000
H        0.51583000       1.43090000      -0.59636000
H        0.82149000       1.15427000       1.12996000
H        2.57272000       0.12279000      -1.16452000
H        2.87631000      -0.15144000       0.55230000
H        3.08629000       2.32483000       0.90780000
H        2.78934000       2.59493000      -0.81071000
H        4.83041000       1.25016000      -1.37321000
H        5.12673000       0.98335000       0.34646000
H        5.33079000       3.45974000       0.69211000
H        5.04147000       3.72102000      -1.02964000
H        7.09604000       2.38153000      -1.57875000
H        7.38159000       2.11819000       0.14759000
H        7.29135000       4.73008000      -1.19595000
H        8.64249000       3.94041000      -0.73757000
10
Properties=species:S:1:pos:R:3 energy=-1184.76 pbc="F F F"
C        1.00000000       0.00000000       0.00000000
C        2.19016000       0.00000000       0.00000000
C        3.63416000       0.00000000       0.00000000
C        4.13408000      -0.70738000      -1.15535000
C        4.54613000      -1.29041000      -2.10760000
C        4.11618000       1.36117000       0.00000000
N        4.50039000       2.44616000       0.00000000
H       -0.06565000       0.00376000      -0.00482000
H        3.99065000      -0.50294000       0.90715000
H        4.91334000      -1.80864000      -2.96479000
14
Properties=species:S:1:pos:R:3 energy=-1501.2 pbc="F F F"
C        4.23055000      -0.69147000       2.67093000
C        4.18773000      -0.42075000       1.50107000
C        4.13409000      -0.09042000       0.07011000
C        4.38528000       1.39540000      -0.18602000
C        5.81904000       1.81696000       0.14399000
C        6.03293000       3.23561000      -0.17138000
N        6.20148000       4.35590000      -0.42424000
H        4.26483000      -0.93254000       3.70841000
H        3.14365000      -0.35374000      -0.31958000
H        4.86263000      -0.69528000      -0.48195000
H        3.67574000       2.00210000       0.39237000
H        4.18236000       1.60435000      -1.24470000
H        6.52687000       1.20661000      -0.42883000
H        6.03417000       1.65009000       1.20514000
18
Properties=species:S:1:pos:R:3 energy=-1783.58 pbc="F F F"
C        0.69518000       0.72530000       0.35238000
C        2.16903000       0.55126000       0.52515000
C        3.07674000       1.46998000       0.16389000
C        4.49614000       1.27343000       0.34012000
C        5.41483000       2.15276000      -0.08829000
C        6.88654000       1.96714000       0.08149000
N        7.50690000       1.80901000      -1.22431000
H        0.19369000       0.62617000       1.31991000
H        0.30502000      -0.04648000      -0.31816000
H        0.43903000       1.70382000      -0.06569000
H        2.48776000      -0.39004000       0.96717000
H        2.75133000       2.40588000      -0.28645000
H        4.81625000       0.35835000       0.83403000
H        5.10734000       3.06661000      -0.59213000
H        7.11449000       1.09696000       0.70686000
H        7.30559000       2.84773000       0.57968000
H        7.12153000       0.97576000      -1.66820000
H        8.50028000       1.62413000      -1.09893000
20
Properties=species:S:1:pos:R:3 energy=-1922.87 pbc="F F F"
C        0.87029000       0.94193000      -1.01466000
C        2.35987000       0.82750000      -1.07098000
C        3.17521000       1.22107000      -0.07721000
C        4.68566000       1.15146000      -0.03172000
C        5.11014000       0.25471000       1.14113000
C        5.34996000       0.64347000      -1.32194000
N        5.16528000       2.51226000       0.23628000
H        0.41703000      -0.04839000      -1.12055000
H        0.51450000       1.57296000      -1.83484000
H        0.52184000       1.37759000      -0.07293000
H        2.76309000       0.39791000      -1.98338000
H        2.71889000       1.64555000       0.81833000
H        4.70160000       0.61054000       2.09518000
H        6.20138000       0.21869000       1.24431000
H        4.75906000      -0.77425000       0.99720000
H        5.09243000       1.26839000      -2.18553000
H        5.04573000      -0.38521000      -1.54836000
H        6.44329000       0.64408000      -1.23353000
H        4.93564000       3.10360000      -0.56184000
H        6.18182000       2.50917000       0.29843000
18
Properties=species:S:1:pos:R:3 energy=-1776.51 pbc="F F F"
C        2.66965000      -0.99544000       1.40189000
C        2.42805000      -0.21864000       0.13712000
C        1.64369000      -0.68881000      -0.84558000
C        3.08794000       1.08236000       0.02672000
C        2.35512000       2.20144000      -0.12897000
C        4.60242000       1.06276000       0.07961000
N        5.23737000       2.22625000      -0.53900000
H        3.71924000      -1.29628000       1.48237000
H        2.06246000      -1.90713000       1.44017000
H        2.41062000      -0.39318000       2.27932000
H        1.15100000      -1.65256000      -0.76701000
H        1.47577000      -0.12556000      -1.75958000
H        1.27067000       2.17732000      -0.16022000
H        2.82607000       3.17649000      -0.20521000
H        4.97945000       0.16830000      -0.43219000
H        4.92406000       1.00271000       1.12515000
H        4.97639000       2.23940000      -1.52509000
H        6.24740000       2.09647000      -0.51902000
20
Properties=species:S:1:pos:R:3 energy=-1919.2 pbc="F F F"
C        2.52987000      -0.87323000       1.29018000
C        2.47683000      -0.05789000       0.01665000
C        1.81484000      -0.57328000      -1.03900000
C        3.18138000       1.30646000       0.01701000
C        3.11906000       2.04598000      -1.33690000
C        2.57174000       2.23449000       1.08508000
N        4.60717000       1.10996000       0.31619000
H        3.56282000      -1.09208000       1.57577000
H        2.01902000      -1.83692000       1.18402000
H        2.04040000      -0.34330000       2.11234000
H        1.33628000      -1.54711000      -0.98754000
H        1.73365000      -0.06108000      -1.99103000
H        3.57993000       1.46181000      -2.14298000
H        3.64721000       3.00710000      -1.29384000
H        2.08392000       2.26641000      -1.62436000
H        2.70603000       1.84479000       2.10062000
H        1.49601000       2.36933000       0.92090000
H        3.03580000       3.22821000       1.06282000
H        4.71618000       0.82702000       1.28761000
H        5.09889000       1.99794000       0.23280000
17
Properties=species:S:1:pos:R:3 energy=-1783.52 pbc="F F F"
C        1.06100000       0.00365000       0.16496000
C        2.39410000      -0.00288000       0.06389000
C        3.25189000       1.23129000       0.00715000
C        4.40270000       0.79049000      -0.88276000
C        4.62673000      -0.67302000      -0.51836000
C        3.25608000      -1.15750000      -0.12577000
C        2.93449000      -2.44628000       0.03841000
H        0.47449000      -0.90881000       0.14645000
H        0.51362000       0.93673000       0.25903000
H        3.61354000       1.48053000       1.01165000
H        2.73238000       2.10002000      -0.40724000
H        4.12125000       0.87831000      -1.93980000
H        5.30114000       1.39491000      -0.72670000
H        5.04434000      -1.23058000      -1.36377000
H        5.31229000      -0.75294000       0.33452000
H        1.94347000      -2.75938000       0.34535000
H        3.67035000      -3.22774000      -0.11833000
16
Properties=species:S:1:pos:R:3 energy=-1655.44 pbc="F F F"
C        0.98781000       0.01042000       0.14272000
C        2.52000000       0.00000000       0.00000000
C        3.12927000      -0.74743000       1.19930000
C        2.87674000      -0.76564000      -1.27269000
C        3.55456000      -0.32868000      -2.34528000
C        3.00202000       1.36117000       0.00000000
N        3.38623000       2.44616000       0.00000000
H        0.51014000       0.52975000      -0.69771000
H        0.67588000       0.52438000       1.06039000
H        0.57882000      -1.00646000       0.17933000
H        2.87751000      -0.25452000       2.14654000
H        4.22407000      -0.78486000       1.13460000
H        2.76541000      -1.78027000       1.25854000
H        2.52975000      -1.79986000      -1.30088000
H        3.94664000       0.68154000      -2.42712000
H        3.73764000      -0.98912000      -3.18902000
18
Properties=species:S:1:pos:R:3 energy=-1803.68 pbc="F F F"
C        0.82219000       0.24261000       0.01040000
C        2.35087000       0.03871000       0.01379000
C        2.73240000      -0.75218000       1.27893000
C        2.73450000      -0.77813000      -1.23409000
C        3.02739000       1.43282000       0.00000000
C        4.47076000       1.39045000       0.00092000
N        5.62128000       1.35669000       0.00166000
H        0.49878000       0.79161000      -0.88076000
H        0.49730000       0.81013000       0.88932000
H        0.29304000      -0.71699000       0.01998000
H        2.48662000      -0.18796000       2.18531000
H        3.80267000      -0.98218000       1.30592000
H        2.19342000      -1.70565000       1.32482000
H        2.49054000      -0.23263000      -2.15238000
H        2.19535000      -1.73210000      -1.26126000
H        3.80477000      -1.00893000      -1.25438000
H        2.68688000       2.00879000       0.87025000
H        2.68757000       1.99109000      -0.88198000
14
Properties=species:S:1:pos:R:3 energy=-1495.74 pbc="F F F"
C        0.98226000       0.00138000      -0.00732000
C        2.52000000       0.00000000       0.00000000
C        3.01284000      -0.71383000       1.27045000
C        3.00334000      -0.75354000      -1.18564000
C        3.40281000      -1.35439000      -2.14563000
C        3.00202000       1.36117000       0.00000000
N        3.38623000       2.44616000       0.00000000
H        0.58567000       0.50235000      -0.89963000
H        0.57757000       0.52466000       0.86761000
H        0.58048000      -1.01924000      -0.00119000
H        2.66541000      -0.20435000       2.17749000
H        4.10917000      -0.74466000       1.31323000
H        2.65631000      -1.75028000       1.31185000
H        3.76315000      -1.88084000      -3.00070000
20
Properties=species:S:1:pos:R:3 energy=-1918.61 pbc="F F F"
C        1.11773000      -0.33715000       0.48614000
C        2.41502000       0.06500000      -0.23197000
C        2.92979000      -1.14219000      -1.02611000
C        2.30993000       1.31414000      -1.11614000
C        1.15458000       1.95671000      -1.37512000
C        3.59691000       1.83503000      -1.71898000
N        4.55616000       2.19694000      -0.68596000
H        0.73513000       0.48267000       1.10340000
H        1.29563000      -1.18869000       1.15254000
H        0.33755000      -0.63287000      -0.22411000
H        3.14302000       0.27970000       0.56147000
H        2.28160000      -1.36256000      -1.88121000
H        2.97014000      -2.03595000      -0.39361000
H        3.94390000      -0.97365000      -1.40201000
H        0.20037000       1.63378000      -0.97410000
H        1.12639000       2.84122000      -2.00500000
H        3.41114000       2.71609000      -2.34492000
H        4.03429000       1.07918000      -2.37910000
H        4.15431000       2.94233000      -0.11921000
H        5.38368000       2.59227000      -1.12793000
18
Properties=species:S:1:pos:R:3 energy=-1801.73 pbc="F F F"
C        0.97374000      -0.10078000       0.17100000
C        2.49654000      -0.02888000       0.00679000
C        2.88467000      -0.77215000      -1.28088000
C        3.02739000       1.43282000       0.00000000
C        2.54925000       2.24016000       1.21238000
C        4.47065000       1.46049000      -0.03685000
N        5.62107000       1.48254000      -0.06623000
H        0.66098000       0.25889000       1.15583000
H        0.62111000      -1.13434000       0.08393000
H        0.46450000       0.49555000      -0.59283000
H        2.94808000      -0.56996000       0.84997000
H        2.48233000      -0.26738000      -2.16516000
H        2.49478000      -1.79624000      -1.27013000
H        3.97140000      -0.84331000      -1.39348000
H        2.64373000       1.93544000      -0.89777000
H        2.80832000       1.73995000       2.15292000
H        1.46535000       2.39140000       1.19116000
H        3.01023000       3.23536000       1.23002000
22
Properties=species:S:1:pos:R:3 energy=-2064.19 pbc="F F F"
C        1.76389000      -0.88608000       0.28739000
C        3.23161000      -0.50794000       0.06468000
C        3.70508000      -1.05448000      -1.28349000
C        3.39549000       1.02400000       0.16865000
C        4.84014000       1.54237000       0.05092000
C        4.86812000       3.06876000       0.14074000
N        5.68491000       0.97525000       1.10277000
H        1.41802000      -0.54006000       1.26669000
H        1.63287000      -1.97245000       0.25315000
H        1.11882000      -0.44215000      -0.47768000
H        3.81884000      -0.98989000       0.85650000
H        3.19422000      -0.55706000      -2.11423000
H        3.50478000      -2.12852000      -1.35845000
H        4.78246000      -0.91737000      -1.41280000
H        2.97302000       1.35708000       1.12663000
H        2.78697000       1.49853000      -0.61252000
H        5.25698000       1.25486000      -0.91992000
H        4.47013000       3.42428000       1.09798000
H        4.26646000       3.51310000      -0.65966000
H        5.89008000       3.45049000       0.03660000
H        5.32608000       1.24748000       2.01758000
H        6.62339000       1.36865000       1.03945000
16
Properties=species:S:1:pos:R:3 energy=-1626.55 pbc="F F F"
C        1.00000000       0.00000000       0.00000000
C        2.44400000       0.00000000       0.00000000
C        3.63416000       0.00000000       0.00000000
C        5.04016000       0.00000000       0.00000000
C        5.68707000      -1.17271000      -0.10553000
C        5.78361000       1.31322000       0.06552000
N        5.73926000       1.89994000       1.40244000
H        0.60604000       1.02088000       0.01202000
H        0.60600000      -0.52081000       0.87810000
H        0.60597000      -0.50003000      -0.89009000
H        5.15160000      -2.11545000      -0.16597000
H        6.77114000      -1.21910000      -0.11500000
H        5.35136000       2.01613000      -0.65718000
H        6.83355000       1.17994000      -0.21987000
H        4.76310000       2.02738000       1.66754000
H        6.14692000       2.83177000       1.36771000
18
Properties=species:S:1:pos:R:3 energy=-1769.32 pbc="F F F"
C        1.00000000       0.00000000       0.00000000
C        2.44400000       0.00000000       0.00000000
C        3.63416000       0.00000000       0.00000000
C        5.07816000       0.00000000       0.00000000
C        5.60438000      -0.69305000       1.26168000
C        5.60990000      -0.71727000      -1.24686000
N        5.55611000       1.38390000       0.00170000
H        0.60601000       1.02087000       0.01167000
H        0.60602000      -0.52056000       0.87826000
H        0.60603000      -0.50033000      -0.88994000
H        5.25397000      -0.19319000       2.17437000
H        6.70083000      -0.70544000       1.28904000
H        5.26133000      -1.73473000       1.31483000
H        5.26076000      -0.23746000      -2.17017000
H        5.27211000      -1.76081000      -1.27839000
H        6.70654000      -0.72507000      -1.26986000
H        5.21482000       1.85207000      -0.83676000
H        6.57151000       1.39524000      -0.05645000
14
Properties=species:S:1:pos:R:3 energy=-1503.27 pbc="F F F"
C        1.00000000       0.00000000       0.00000000
C        2.44400000       0.00000000       0.00000000
C        3.63416000       0.00000000       0.00000000
C        5.07816000       0.00000000       0.00000000
C        5.61876000      -0.76297000      -1.20705000
C        5.56018000       1.36117000       0.00000000
N        5.94439000       2.44616000       0.00000000
H        0.60602000       1.02088000       0.01165000
H        0.60594000      -0.52053000       0.87824000
H        0.60602000      -0.50030000      -0.88996000
H        5.43647000      -0.50568000       0.90496000
H        5.29692000      -0.30913000      -2.15300000
H        5.26940000      -1.80224000      -1.20433000
H        6.71507000      -0.77738000      -1.20463000
20
Properties=species:S:1:pos:R:3 energy=-1920.45 pbc="F F F"
C        1.84321000      -0.58764000       1.21299000
C        2.64977000      -0.19819000      -0.01614000
C        2.99341000       1.26323000      -0.00748000
C        4.24832000       1.73968000      -0.00791000
C        4.58803000       3.20557000      -0.02103000
C        5.40079000       3.61007000       1.21443000
N        5.75542000       5.02758000       1.17159000
H        1.59011000      -1.65197000       1.17685000
H        0.90816000      -0.02044000       1.27005000
H        2.40997000      -0.40504000       2.13196000
H        2.06621000      -0.41634000      -0.91806000
H        3.55491000      -0.81514000      -0.06393000
H        2.15465000       1.95747000      -0.01479000
H        5.08775000       1.04712000      -0.01463000
H        3.67647000       3.81375000      -0.07779000
H        5.16537000       3.41381000      -0.93044000
H        6.31918000       3.01453000       1.27670000
H        4.82141000       3.41732000       2.12457000
H        6.33393000       5.21116000       0.35286000
H        6.32859000       5.25446000       1.98316000
